*SPEF "ieee 1481-1999"
*DESIGN "impl_top"
*DATE "02:22:40 Monday May 11, 2026"
*VENDOR "The OpenROAD Project"
*PROGRAM "OpenROAD"
*VERSION "edf00dff99f6c40d67a30c0e22a8191c5d2ed9d6"
*DESIGN_FLOW "NAME_SCOPE LOCAL" "PIN_CAP NONE"
*DIVIDER /
*DELIMITER :
*BUS_DELIMITER []
*T_UNIT 1 NS
*C_UNIT 1 PF
*R_UNIT 1 OHM
*L_UNIT 1 HENRY

*NAME_MAP
*3 clk
*4 led[0]
*5 led[1]
*6 led[2]
*7 led[3]
*8 led[4]
*9 led[5]
*10 led[6]
*11 led[7]
*12 sw_0
*13 sw_1
*14 uart_rxd
*15 uart_txd
*16 _000_
*17 _001_
*18 _002_
*19 _003_
*20 _004_
*21 _005_
*22 _006_
*23 _007_
*24 _008_
*25 _009_
*26 _010_
*27 _011_
*28 _012_
*29 _013_
*30 _014_
*31 _015_
*32 _016_
*33 _017_
*34 _018_
*35 _019_
*36 _020_
*37 _021_
*38 _022_
*39 _023_
*40 _024_
*41 _025_
*42 _026_
*43 _027_
*44 _028_
*45 _029_
*46 _030_
*47 _031_
*48 _032_
*49 _033_
*50 _034_
*51 _035_
*52 _036_
*53 _037_
*54 _038_
*55 _039_
*56 _040_
*57 _041_
*58 _042_
*59 _043_
*60 _044_
*61 _045_
*62 _046_
*63 _047_
*64 _048_
*65 _049_
*66 _050_
*67 _051_
*68 _052_
*69 _053_
*70 _054_
*71 _055_
*72 _056_
*73 _057_
*74 _058_
*75 _059_
*76 _060_
*77 _061_
*78 _062_
*79 _063_
*80 _064_
*81 _065_
*82 _066_
*83 _067_
*84 _068_
*85 _069_
*86 _070_
*87 _071_
*88 _072_
*89 _073_
*90 _074_
*91 _075_
*92 _076_
*93 _077_
*94 _078_
*95 _079_
*96 _080_
*97 _081_
*98 _082_
*99 _083_
*100 _084_
*101 _085_
*102 _086_
*103 _087_
*104 _088_
*105 _089_
*106 _090_
*107 _091_
*108 _092_
*109 _093_
*110 _094_
*111 _095_
*112 _096_
*113 _097_
*114 _098_
*115 _099_
*116 _100_
*117 _101_
*118 _102_
*119 _103_
*120 _104_
*121 _105_
*122 _106_
*123 _107_
*124 _108_
*125 _109_
*126 _110_
*127 _111_
*128 _112_
*129 _113_
*130 _114_
*131 _115_
*132 _116_
*133 _117_
*134 _118_
*135 _119_
*136 _120_
*137 _121_
*138 _122_
*139 _123_
*140 _124_
*141 _125_
*142 _126_
*143 _127_
*144 _128_
*145 _129_
*146 _130_
*147 _131_
*148 _132_
*149 _133_
*150 _134_
*151 _135_
*152 _136_
*153 _137_
*154 _138_
*155 _139_
*156 _140_
*157 _141_
*158 _142_
*159 _143_
*160 _144_
*161 _145_
*162 _146_
*163 _147_
*164 _148_
*165 _149_
*166 _150_
*167 _151_
*168 _152_
*169 _153_
*170 _154_
*171 _155_
*172 _156_
*173 _157_
*174 _158_
*175 _159_
*176 _160_
*177 _161_
*178 _162_
*179 _163_
*180 _164_
*181 _165_
*182 _166_
*183 _167_
*184 _168_
*185 _169_
*186 _170_
*187 _171_
*188 _172_
*189 _173_
*190 _174_
*191 _175_
*192 _176_
*193 _177_
*194 _178_
*195 _179_
*196 _180_
*197 _181_
*198 _182_
*199 _183_
*200 _184_
*201 _185_
*202 _186_
*203 _187_
*204 _188_
*205 _189_
*206 _190_
*207 _191_
*208 _192_
*209 _193_
*210 _194_
*211 _195_
*212 _196_
*213 _197_
*214 _198_
*215 _199_
*216 _200_
*217 _201_
*218 _202_
*219 _203_
*220 _204_
*221 _205_
*222 _206_
*223 _207_
*224 _208_
*225 _209_
*226 _210_
*227 _211_
*228 _212_
*229 _213_
*230 _214_
*231 _215_
*232 _216_
*233 _217_
*234 _218_
*235 _219_
*236 _220_
*237 _221_
*238 _222_
*239 _223_
*240 _224_
*241 _225_
*242 _226_
*243 _227_
*244 _228_
*245 _229_
*246 _230_
*247 _231_
*248 _232_
*249 _233_
*250 _234_
*251 _235_
*252 _236_
*253 _237_
*254 _238_
*255 _239_
*256 _240_
*257 _241_
*258 _242_
*259 clknet_0_clk
*260 clknet_3_0__leaf_clk
*261 clknet_3_1__leaf_clk
*262 clknet_3_2__leaf_clk
*263 clknet_3_3__leaf_clk
*264 clknet_3_4__leaf_clk
*265 clknet_3_5__leaf_clk
*266 clknet_3_6__leaf_clk
*267 clknet_3_7__leaf_clk
*268 i_uart_rx\.bit_counter\[0\]
*269 i_uart_rx\.bit_counter\[1\]
*270 i_uart_rx\.bit_counter\[2\]
*271 i_uart_rx\.bit_counter\[3\]
*272 i_uart_rx\.bit_sample
*273 i_uart_rx\.cycle_counter\[0\]
*274 i_uart_rx\.cycle_counter\[10\]
*275 i_uart_rx\.cycle_counter\[11\]
*276 i_uart_rx\.cycle_counter\[12\]
*277 i_uart_rx\.cycle_counter\[13\]
*278 i_uart_rx\.cycle_counter\[1\]
*279 i_uart_rx\.cycle_counter\[2\]
*280 i_uart_rx\.cycle_counter\[3\]
*281 i_uart_rx\.cycle_counter\[4\]
*282 i_uart_rx\.cycle_counter\[5\]
*283 i_uart_rx\.cycle_counter\[6\]
*284 i_uart_rx\.cycle_counter\[7\]
*285 i_uart_rx\.cycle_counter\[8\]
*286 i_uart_rx\.cycle_counter\[9\]
*287 i_uart_rx\.fsm_state\[0\]
*288 i_uart_rx\.fsm_state\[1\]
*289 i_uart_rx\.fsm_state\[2\]
*290 i_uart_rx\.fsm_state\[3\]
*291 i_uart_rx\.recieved_data\[0\]
*292 i_uart_rx\.recieved_data\[1\]
*293 i_uart_rx\.recieved_data\[2\]
*294 i_uart_rx\.recieved_data\[3\]
*295 i_uart_rx\.recieved_data\[4\]
*296 i_uart_rx\.recieved_data\[5\]
*297 i_uart_rx\.recieved_data\[6\]
*298 i_uart_rx\.recieved_data\[7\]
*299 i_uart_rx\.rxd_reg
*300 i_uart_rx\.rxd_reg_0
*301 i_uart_rx\.uart_rx_data\[0\]
*302 i_uart_rx\.uart_rx_data\[1\]
*303 i_uart_rx\.uart_rx_data\[2\]
*304 i_uart_rx\.uart_rx_data\[3\]
*305 i_uart_rx\.uart_rx_data\[4\]
*306 i_uart_rx\.uart_rx_data\[5\]
*307 i_uart_rx\.uart_rx_data\[6\]
*308 i_uart_rx\.uart_rx_data\[7\]
*309 i_uart_tx\.bit_counter\[0\]
*310 i_uart_tx\.bit_counter\[1\]
*311 i_uart_tx\.bit_counter\[2\]
*312 i_uart_tx\.bit_counter\[3\]
*313 i_uart_tx\.cycle_counter\[0\]
*314 i_uart_tx\.cycle_counter\[10\]
*315 i_uart_tx\.cycle_counter\[11\]
*316 i_uart_tx\.cycle_counter\[12\]
*317 i_uart_tx\.cycle_counter\[13\]
*318 i_uart_tx\.cycle_counter\[1\]
*319 i_uart_tx\.cycle_counter\[2\]
*320 i_uart_tx\.cycle_counter\[3\]
*321 i_uart_tx\.cycle_counter\[4\]
*322 i_uart_tx\.cycle_counter\[5\]
*323 i_uart_tx\.cycle_counter\[6\]
*324 i_uart_tx\.cycle_counter\[7\]
*325 i_uart_tx\.cycle_counter\[8\]
*326 i_uart_tx\.cycle_counter\[9\]
*327 i_uart_tx\.data_to_send\[0\]
*328 i_uart_tx\.data_to_send\[1\]
*329 i_uart_tx\.data_to_send\[2\]
*330 i_uart_tx\.data_to_send\[3\]
*331 i_uart_tx\.data_to_send\[4\]
*332 i_uart_tx\.data_to_send\[5\]
*333 i_uart_tx\.data_to_send\[6\]
*334 i_uart_tx\.data_to_send\[7\]
*335 i_uart_tx\.fsm_state\[0\]
*336 i_uart_tx\.fsm_state\[1\]
*337 i_uart_tx\.fsm_state\[2\]
*338 i_uart_tx\.fsm_state\[3\]
*339 net1
*340 net10
*341 net100
*342 net101
*343 net102
*344 net103
*345 net104
*346 net105
*347 net106
*348 net107
*349 net108
*350 net109
*351 net11
*352 net110
*353 net111
*354 net112
*355 net113
*356 net114
*357 net115
*358 net116
*359 net117
*360 net118
*361 net119
*362 net12
*363 net120
*364 net121
*365 net122
*366 net123
*367 net124
*368 net125
*369 net126
*370 net127
*371 net128
*372 net129
*373 net13
*374 net130
*375 net131
*376 net132
*377 net133
*378 net134
*379 net135
*380 net136
*381 net137
*382 net138
*383 net139
*384 net14
*385 net140
*386 net141
*387 net142
*388 net143
*389 net144
*390 net145
*391 net146
*392 net147
*393 net148
*394 net149
*395 net15
*396 net150
*397 net151
*398 net152
*399 net153
*400 net154
*401 net155
*402 net156
*403 net157
*404 net158
*405 net159
*406 net16
*407 net160
*408 net161
*409 net162
*410 net163
*411 net164
*412 net165
*413 net166
*414 net167
*415 net168
*416 net169
*417 net17
*418 net170
*419 net171
*420 net172
*421 net173
*422 net174
*423 net175
*424 net176
*425 net177
*426 net178
*427 net179
*428 net18
*429 net180
*430 net181
*431 net182
*432 net183
*433 net19
*434 net2
*435 net20
*436 net21
*437 net22
*438 net23
*439 net24
*440 net25
*441 net26
*442 net27
*443 net28
*444 net29
*445 net3
*446 net30
*447 net31
*448 net32
*449 net33
*450 net34
*451 net35
*452 net36
*453 net37
*454 net38
*455 net39
*456 net4
*457 net40
*458 net41
*459 net42
*460 net43
*461 net44
*462 net45
*463 net46
*464 net47
*465 net48
*466 net49
*467 net5
*468 net50
*469 net51
*470 net52
*471 net53
*472 net54
*473 net55
*474 net56
*475 net57
*476 net58
*477 net59
*478 net6
*479 net60
*480 net61
*481 net62
*482 net63
*483 net64
*484 net65
*485 net66
*486 net67
*487 net68
*488 net69
*489 net7
*490 net70
*491 net71
*492 net72
*493 net73
*494 net74
*495 net75
*496 net76
*497 net77
*498 net78
*499 net79
*500 net8
*501 net80
*502 net81
*503 net82
*504 net83
*505 net84
*506 net85
*507 net86
*508 net87
*509 net88
*510 net89
*511 net9
*512 net90
*513 net91
*514 net92
*515 net93
*516 net94
*517 net95
*518 net96
*519 net97
*520 net98
*521 net99
*522 ANTENNA_1
*523 ANTENNA__247__A
*524 ANTENNA__247__Y
*525 ANTENNA__271__C1
*526 ANTENNA__283__X
*527 ANTENNA__286__A2
*528 ANTENNA__286__C1
*529 ANTENNA__289__B
*530 ANTENNA__290__A2
*531 ANTENNA__291__A
*532 ANTENNA__292__A1
*533 ANTENNA__293__A
*534 ANTENNA__297__A
*535 ANTENNA__298__A1
*536 ANTENNA__299__A2
*537 ANTENNA__300__B1
*538 ANTENNA__303__A2
*539 ANTENNA__305__A2
*540 ANTENNA__307__A2
*541 ANTENNA__308__B1
*542 ANTENNA__309__A2
*543 ANTENNA__310__B1
*544 ANTENNA__311__A2
*545 ANTENNA__312__B1
*546 ANTENNA__313__A2
*547 ANTENNA__314__B1
*548 ANTENNA__315__A2
*549 ANTENNA__336__C1
*550 ANTENNA__337__B
*551 ANTENNA__348__B1
*552 ANTENNA__350__B1
*553 ANTENNA__352__B1
*554 ANTENNA__354__B1
*555 ANTENNA__358__B
*556 ANTENNA__388__C1
*557 ANTENNA__429__A
*558 ANTENNA__430__A
*559 ANTENNA__431__A2
*560 ANTENNA__432__B1
*561 ANTENNA__485__A
*562 ANTENNA_clkbuf_0_clk_A
*563 ANTENNA_clkbuf_0_clk_X
*564 ANTENNA_clkbuf_3_0__f_clk_A
*565 ANTENNA_clkbuf_3_1__f_clk_A
*566 ANTENNA_clkbuf_3_2__f_clk_A
*567 ANTENNA_clkbuf_3_3__f_clk_A
*568 ANTENNA_clkbuf_3_4__f_clk_A
*569 ANTENNA_clkbuf_3_5__f_clk_A
*570 ANTENNA_clkbuf_3_6__f_clk_A
*571 ANTENNA_clkbuf_3_7__f_clk_A
*572 ANTENNA_fanout12_A
*573 ANTENNA_fanout13_X
*574 ANTENNA_input1_A
*575 ANTENNA_input2_A
*576 FILLER_0_109
*577 FILLER_0_111
*578 FILLER_0_113
*579 FILLER_0_125
*580 FILLER_0_137
*581 FILLER_0_139
*582 FILLER_0_141
*583 FILLER_0_15
*584 FILLER_0_153
*585 FILLER_0_165
*586 FILLER_0_167
*587 FILLER_0_169
*588 FILLER_0_181
*589 FILLER_0_189
*590 FILLER_0_191
*591 FILLER_0_197
*592 FILLER_0_209
*593 FILLER_0_221
*594 FILLER_0_223
*595 FILLER_0_225
*596 FILLER_0_237
*597 FILLER_0_249
*598 FILLER_0_251
*599 FILLER_0_253
*600 FILLER_0_265
*601 FILLER_0_27
*602 FILLER_0_277
*603 FILLER_0_279
*604 FILLER_0_281
*605 FILLER_0_29
*606 FILLER_0_293
*607 FILLER_0_3
*608 FILLER_0_305
*609 FILLER_0_307
*610 FILLER_0_309
*611 FILLER_0_321
*612 FILLER_0_333
*613 FILLER_0_335
*614 FILLER_0_337
*615 FILLER_0_349
*616 FILLER_0_361
*617 FILLER_0_363
*618 FILLER_0_365
*619 FILLER_0_377
*620 FILLER_0_389
*621 FILLER_0_391
*622 FILLER_0_393
*623 FILLER_0_405
*624 FILLER_0_41
*625 FILLER_0_53
*626 FILLER_0_55
*627 FILLER_0_57
*628 FILLER_0_69
*629 FILLER_0_81
*630 FILLER_0_83
*631 FILLER_0_85
*632 FILLER_0_97
*633 FILLER_10_109
*634 FILLER_10_121
*635 FILLER_10_133
*636 FILLER_10_137
*637 FILLER_10_139
*638 FILLER_10_141
*639 FILLER_10_15
*640 FILLER_10_153
*641 FILLER_10_165
*642 FILLER_10_177
*643 FILLER_10_189
*644 FILLER_10_193
*645 FILLER_10_195
*646 FILLER_10_197
*647 FILLER_10_209
*648 FILLER_10_221
*649 FILLER_10_233
*650 FILLER_10_245
*651 FILLER_10_249
*652 FILLER_10_251
*653 FILLER_10_253
*654 FILLER_10_265
*655 FILLER_10_27
*656 FILLER_10_277
*657 FILLER_10_289
*658 FILLER_10_29
*659 FILLER_10_3
*660 FILLER_10_301
*661 FILLER_10_305
*662 FILLER_10_307
*663 FILLER_10_309
*664 FILLER_10_321
*665 FILLER_10_333
*666 FILLER_10_345
*667 FILLER_10_357
*668 FILLER_10_361
*669 FILLER_10_363
*670 FILLER_10_365
*671 FILLER_10_377
*672 FILLER_10_389
*673 FILLER_10_401
*674 FILLER_10_405
*675 FILLER_10_41
*676 FILLER_10_53
*677 FILLER_10_65
*678 FILLER_10_77
*679 FILLER_10_81
*680 FILLER_10_83
*681 FILLER_10_85
*682 FILLER_10_97
*683 FILLER_11_105
*684 FILLER_11_109
*685 FILLER_11_111
*686 FILLER_11_113
*687 FILLER_11_125
*688 FILLER_11_137
*689 FILLER_11_149
*690 FILLER_11_15
*691 FILLER_11_161
*692 FILLER_11_165
*693 FILLER_11_167
*694 FILLER_11_169
*695 FILLER_11_181
*696 FILLER_11_193
*697 FILLER_11_205
*698 FILLER_11_217
*699 FILLER_11_221
*700 FILLER_11_223
*701 FILLER_11_225
*702 FILLER_11_237
*703 FILLER_11_249
*704 FILLER_11_261
*705 FILLER_11_27
*706 FILLER_11_273
*707 FILLER_11_277
*708 FILLER_11_279
*709 FILLER_11_281
*710 FILLER_11_293
*711 FILLER_11_3
*712 FILLER_11_305
*713 FILLER_11_317
*714 FILLER_11_329
*715 FILLER_11_333
*716 FILLER_11_335
*717 FILLER_11_337
*718 FILLER_11_349
*719 FILLER_11_361
*720 FILLER_11_373
*721 FILLER_11_385
*722 FILLER_11_389
*723 FILLER_11_39
*724 FILLER_11_391
*725 FILLER_11_393
*726 FILLER_11_405
*727 FILLER_11_51
*728 FILLER_11_55
*729 FILLER_11_57
*730 FILLER_11_69
*731 FILLER_11_81
*732 FILLER_11_93
*733 FILLER_12_109
*734 FILLER_12_121
*735 FILLER_12_133
*736 FILLER_12_137
*737 FILLER_12_139
*738 FILLER_12_141
*739 FILLER_12_15
*740 FILLER_12_153
*741 FILLER_12_165
*742 FILLER_12_177
*743 FILLER_12_189
*744 FILLER_12_193
*745 FILLER_12_195
*746 FILLER_12_197
*747 FILLER_12_209
*748 FILLER_12_221
*749 FILLER_12_233
*750 FILLER_12_245
*751 FILLER_12_249
*752 FILLER_12_251
*753 FILLER_12_253
*754 FILLER_12_265
*755 FILLER_12_27
*756 FILLER_12_277
*757 FILLER_12_289
*758 FILLER_12_29
*759 FILLER_12_3
*760 FILLER_12_301
*761 FILLER_12_305
*762 FILLER_12_307
*763 FILLER_12_309
*764 FILLER_12_321
*765 FILLER_12_333
*766 FILLER_12_345
*767 FILLER_12_357
*768 FILLER_12_361
*769 FILLER_12_363
*770 FILLER_12_365
*771 FILLER_12_377
*772 FILLER_12_389
*773 FILLER_12_401
*774 FILLER_12_405
*775 FILLER_12_41
*776 FILLER_12_53
*777 FILLER_12_65
*778 FILLER_12_77
*779 FILLER_12_81
*780 FILLER_12_83
*781 FILLER_12_85
*782 FILLER_12_97
*783 FILLER_13_105
*784 FILLER_13_109
*785 FILLER_13_111
*786 FILLER_13_113
*787 FILLER_13_125
*788 FILLER_13_137
*789 FILLER_13_149
*790 FILLER_13_15
*791 FILLER_13_161
*792 FILLER_13_165
*793 FILLER_13_167
*794 FILLER_13_169
*795 FILLER_13_181
*796 FILLER_13_193
*797 FILLER_13_205
*798 FILLER_13_217
*799 FILLER_13_221
*800 FILLER_13_223
*801 FILLER_13_225
*802 FILLER_13_237
*803 FILLER_13_249
*804 FILLER_13_261
*805 FILLER_13_27
*806 FILLER_13_273
*807 FILLER_13_277
*808 FILLER_13_279
*809 FILLER_13_281
*810 FILLER_13_293
*811 FILLER_13_3
*812 FILLER_13_305
*813 FILLER_13_317
*814 FILLER_13_329
*815 FILLER_13_333
*816 FILLER_13_335
*817 FILLER_13_337
*818 FILLER_13_349
*819 FILLER_13_361
*820 FILLER_13_373
*821 FILLER_13_385
*822 FILLER_13_389
*823 FILLER_13_39
*824 FILLER_13_391
*825 FILLER_13_393
*826 FILLER_13_405
*827 FILLER_13_51
*828 FILLER_13_55
*829 FILLER_13_57
*830 FILLER_13_69
*831 FILLER_13_81
*832 FILLER_13_93
*833 FILLER_14_109
*834 FILLER_14_121
*835 FILLER_14_133
*836 FILLER_14_137
*837 FILLER_14_139
*838 FILLER_14_141
*839 FILLER_14_15
*840 FILLER_14_153
*841 FILLER_14_165
*842 FILLER_14_177
*843 FILLER_14_189
*844 FILLER_14_193
*845 FILLER_14_195
*846 FILLER_14_197
*847 FILLER_14_209
*848 FILLER_14_221
*849 FILLER_14_233
*850 FILLER_14_245
*851 FILLER_14_249
*852 FILLER_14_251
*853 FILLER_14_253
*854 FILLER_14_265
*855 FILLER_14_27
*856 FILLER_14_277
*857 FILLER_14_289
*858 FILLER_14_29
*859 FILLER_14_3
*860 FILLER_14_301
*861 FILLER_14_305
*862 FILLER_14_307
*863 FILLER_14_309
*864 FILLER_14_321
*865 FILLER_14_333
*866 FILLER_14_345
*867 FILLER_14_357
*868 FILLER_14_361
*869 FILLER_14_363
*870 FILLER_14_365
*871 FILLER_14_377
*872 FILLER_14_389
*873 FILLER_14_401
*874 FILLER_14_405
*875 FILLER_14_41
*876 FILLER_14_53
*877 FILLER_14_65
*878 FILLER_14_77
*879 FILLER_14_81
*880 FILLER_14_83
*881 FILLER_14_85
*882 FILLER_14_97
*883 FILLER_15_105
*884 FILLER_15_109
*885 FILLER_15_111
*886 FILLER_15_113
*887 FILLER_15_125
*888 FILLER_15_137
*889 FILLER_15_149
*890 FILLER_15_15
*891 FILLER_15_161
*892 FILLER_15_165
*893 FILLER_15_167
*894 FILLER_15_169
*895 FILLER_15_181
*896 FILLER_15_193
*897 FILLER_15_205
*898 FILLER_15_217
*899 FILLER_15_221
*900 FILLER_15_223
*901 FILLER_15_225
*902 FILLER_15_237
*903 FILLER_15_249
*904 FILLER_15_261
*905 FILLER_15_27
*906 FILLER_15_273
*907 FILLER_15_277
*908 FILLER_15_279
*909 FILLER_15_281
*910 FILLER_15_293
*911 FILLER_15_3
*912 FILLER_15_305
*913 FILLER_15_317
*914 FILLER_15_329
*915 FILLER_15_333
*916 FILLER_15_335
*917 FILLER_15_337
*918 FILLER_15_349
*919 FILLER_15_361
*920 FILLER_15_373
*921 FILLER_15_385
*922 FILLER_15_389
*923 FILLER_15_39
*924 FILLER_15_391
*925 FILLER_15_393
*926 FILLER_15_405
*927 FILLER_15_51
*928 FILLER_15_55
*929 FILLER_15_57
*930 FILLER_15_69
*931 FILLER_15_81
*932 FILLER_15_93
*933 FILLER_16_109
*934 FILLER_16_121
*935 FILLER_16_133
*936 FILLER_16_137
*937 FILLER_16_139
*938 FILLER_16_141
*939 FILLER_16_15
*940 FILLER_16_153
*941 FILLER_16_165
*942 FILLER_16_177
*943 FILLER_16_189
*944 FILLER_16_193
*945 FILLER_16_195
*946 FILLER_16_197
*947 FILLER_16_209
*948 FILLER_16_221
*949 FILLER_16_233
*950 FILLER_16_245
*951 FILLER_16_249
*952 FILLER_16_251
*953 FILLER_16_253
*954 FILLER_16_265
*955 FILLER_16_27
*956 FILLER_16_277
*957 FILLER_16_289
*958 FILLER_16_29
*959 FILLER_16_3
*960 FILLER_16_301
*961 FILLER_16_305
*962 FILLER_16_307
*963 FILLER_16_309
*964 FILLER_16_321
*965 FILLER_16_333
*966 FILLER_16_345
*967 FILLER_16_357
*968 FILLER_16_361
*969 FILLER_16_363
*970 FILLER_16_365
*971 FILLER_16_377
*972 FILLER_16_389
*973 FILLER_16_401
*974 FILLER_16_405
*975 FILLER_16_41
*976 FILLER_16_53
*977 FILLER_16_65
*978 FILLER_16_77
*979 FILLER_16_81
*980 FILLER_16_83
*981 FILLER_16_85
*982 FILLER_16_97
*983 FILLER_17_105
*984 FILLER_17_109
*985 FILLER_17_111
*986 FILLER_17_113
*987 FILLER_17_125
*988 FILLER_17_137
*989 FILLER_17_149
*990 FILLER_17_15
*991 FILLER_17_161
*992 FILLER_17_165
*993 FILLER_17_167
*994 FILLER_17_169
*995 FILLER_17_181
*996 FILLER_17_193
*997 FILLER_17_205
*998 FILLER_17_217
*999 FILLER_17_221
*1000 FILLER_17_223
*1001 FILLER_17_225
*1002 FILLER_17_237
*1003 FILLER_17_249
*1004 FILLER_17_261
*1005 FILLER_17_27
*1006 FILLER_17_273
*1007 FILLER_17_277
*1008 FILLER_17_279
*1009 FILLER_17_281
*1010 FILLER_17_285
*1011 FILLER_17_287
*1012 FILLER_17_3
*1013 FILLER_17_304
*1014 FILLER_17_311
*1015 FILLER_17_323
*1016 FILLER_17_335
*1017 FILLER_17_337
*1018 FILLER_17_349
*1019 FILLER_17_361
*1020 FILLER_17_373
*1021 FILLER_17_385
*1022 FILLER_17_389
*1023 FILLER_17_39
*1024 FILLER_17_391
*1025 FILLER_17_393
*1026 FILLER_17_405
*1027 FILLER_17_51
*1028 FILLER_17_55
*1029 FILLER_17_57
*1030 FILLER_17_69
*1031 FILLER_17_81
*1032 FILLER_17_93
*1033 FILLER_18_109
*1034 FILLER_18_121
*1035 FILLER_18_133
*1036 FILLER_18_137
*1037 FILLER_18_139
*1038 FILLER_18_141
*1039 FILLER_18_15
*1040 FILLER_18_153
*1041 FILLER_18_165
*1042 FILLER_18_177
*1043 FILLER_18_189
*1044 FILLER_18_193
*1045 FILLER_18_195
*1046 FILLER_18_197
*1047 FILLER_18_209
*1048 FILLER_18_221
*1049 FILLER_18_233
*1050 FILLER_18_245
*1051 FILLER_18_249
*1052 FILLER_18_251
*1053 FILLER_18_27
*1054 FILLER_18_280
*1055 FILLER_18_29
*1056 FILLER_18_3
*1057 FILLER_18_329
*1058 FILLER_18_341
*1059 FILLER_18_353
*1060 FILLER_18_361
*1061 FILLER_18_363
*1062 FILLER_18_365
*1063 FILLER_18_377
*1064 FILLER_18_386
*1065 FILLER_18_398
*1066 FILLER_18_406
*1067 FILLER_18_41
*1068 FILLER_18_53
*1069 FILLER_18_65
*1070 FILLER_18_77
*1071 FILLER_18_81
*1072 FILLER_18_83
*1073 FILLER_18_85
*1074 FILLER_18_97
*1075 FILLER_19_105
*1076 FILLER_19_109
*1077 FILLER_19_111
*1078 FILLER_19_113
*1079 FILLER_19_125
*1080 FILLER_19_137
*1081 FILLER_19_149
*1082 FILLER_19_15
*1083 FILLER_19_161
*1084 FILLER_19_165
*1085 FILLER_19_167
*1086 FILLER_19_169
*1087 FILLER_19_181
*1088 FILLER_19_193
*1089 FILLER_19_205
*1090 FILLER_19_217
*1091 FILLER_19_221
*1092 FILLER_19_223
*1093 FILLER_19_225
*1094 FILLER_19_237
*1095 FILLER_19_241
*1096 FILLER_19_263
*1097 FILLER_19_27
*1098 FILLER_19_289
*1099 FILLER_19_3
*1100 FILLER_19_315
*1101 FILLER_19_332
*1102 FILLER_19_337
*1103 FILLER_19_349
*1104 FILLER_19_361
*1105 FILLER_19_369
*1106 FILLER_19_380
*1107 FILLER_19_39
*1108 FILLER_19_390
*1109 FILLER_19_395
*1110 FILLER_19_404
*1111 FILLER_19_406
*1112 FILLER_19_51
*1113 FILLER_19_55
*1114 FILLER_19_57
*1115 FILLER_19_69
*1116 FILLER_19_81
*1117 FILLER_19_93
*1118 FILLER_1_105
*1119 FILLER_1_109
*1120 FILLER_1_111
*1121 FILLER_1_113
*1122 FILLER_1_125
*1123 FILLER_1_137
*1124 FILLER_1_149
*1125 FILLER_1_15
*1126 FILLER_1_161
*1127 FILLER_1_165
*1128 FILLER_1_167
*1129 FILLER_1_169
*1130 FILLER_1_181
*1131 FILLER_1_193
*1132 FILLER_1_205
*1133 FILLER_1_217
*1134 FILLER_1_221
*1135 FILLER_1_223
*1136 FILLER_1_225
*1137 FILLER_1_237
*1138 FILLER_1_249
*1139 FILLER_1_261
*1140 FILLER_1_27
*1141 FILLER_1_273
*1142 FILLER_1_277
*1143 FILLER_1_279
*1144 FILLER_1_281
*1145 FILLER_1_293
*1146 FILLER_1_3
*1147 FILLER_1_305
*1148 FILLER_1_317
*1149 FILLER_1_329
*1150 FILLER_1_333
*1151 FILLER_1_335
*1152 FILLER_1_337
*1153 FILLER_1_349
*1154 FILLER_1_361
*1155 FILLER_1_373
*1156 FILLER_1_385
*1157 FILLER_1_389
*1158 FILLER_1_39
*1159 FILLER_1_391
*1160 FILLER_1_393
*1161 FILLER_1_405
*1162 FILLER_1_51
*1163 FILLER_1_55
*1164 FILLER_1_57
*1165 FILLER_1_69
*1166 FILLER_1_81
*1167 FILLER_1_93
*1168 FILLER_20_109
*1169 FILLER_20_121
*1170 FILLER_20_133
*1171 FILLER_20_137
*1172 FILLER_20_139
*1173 FILLER_20_141
*1174 FILLER_20_15
*1175 FILLER_20_153
*1176 FILLER_20_165
*1177 FILLER_20_177
*1178 FILLER_20_189
*1179 FILLER_20_193
*1180 FILLER_20_195
*1181 FILLER_20_197
*1182 FILLER_20_209
*1183 FILLER_20_221
*1184 FILLER_20_233
*1185 FILLER_20_245
*1186 FILLER_20_247
*1187 FILLER_20_253
*1188 FILLER_20_27
*1189 FILLER_20_271
*1190 FILLER_20_285
*1191 FILLER_20_29
*1192 FILLER_20_3
*1193 FILLER_20_305
*1194 FILLER_20_307
*1195 FILLER_20_333
*1196 FILLER_20_341
*1197 FILLER_20_358
*1198 FILLER_20_362
*1199 FILLER_20_404
*1200 FILLER_20_406
*1201 FILLER_20_41
*1202 FILLER_20_53
*1203 FILLER_20_65
*1204 FILLER_20_77
*1205 FILLER_20_81
*1206 FILLER_20_83
*1207 FILLER_20_85
*1208 FILLER_20_97
*1209 FILLER_21_105
*1210 FILLER_21_109
*1211 FILLER_21_111
*1212 FILLER_21_113
*1213 FILLER_21_125
*1214 FILLER_21_137
*1215 FILLER_21_149
*1216 FILLER_21_15
*1217 FILLER_21_161
*1218 FILLER_21_165
*1219 FILLER_21_167
*1220 FILLER_21_169
*1221 FILLER_21_181
*1222 FILLER_21_193
*1223 FILLER_21_205
*1224 FILLER_21_217
*1225 FILLER_21_221
*1226 FILLER_21_223
*1227 FILLER_21_225
*1228 FILLER_21_233
*1229 FILLER_21_250
*1230 FILLER_21_27
*1231 FILLER_21_271
*1232 FILLER_21_297
*1233 FILLER_21_3
*1234 FILLER_21_315
*1235 FILLER_21_327
*1236 FILLER_21_335
*1237 FILLER_21_337
*1238 FILLER_21_355
*1239 FILLER_21_370
*1240 FILLER_21_372
*1241 FILLER_21_383
*1242 FILLER_21_39
*1243 FILLER_21_406
*1244 FILLER_21_51
*1245 FILLER_21_55
*1246 FILLER_21_57
*1247 FILLER_21_69
*1248 FILLER_21_81
*1249 FILLER_21_93
*1250 FILLER_22_109
*1251 FILLER_22_121
*1252 FILLER_22_133
*1253 FILLER_22_137
*1254 FILLER_22_139
*1255 FILLER_22_141
*1256 FILLER_22_15
*1257 FILLER_22_153
*1258 FILLER_22_165
*1259 FILLER_22_177
*1260 FILLER_22_189
*1261 FILLER_22_193
*1262 FILLER_22_195
*1263 FILLER_22_197
*1264 FILLER_22_209
*1265 FILLER_22_221
*1266 FILLER_22_233
*1267 FILLER_22_237
*1268 FILLER_22_239
*1269 FILLER_22_251
*1270 FILLER_22_267
*1271 FILLER_22_27
*1272 FILLER_22_29
*1273 FILLER_22_290
*1274 FILLER_22_3
*1275 FILLER_22_314
*1276 FILLER_22_316
*1277 FILLER_22_333
*1278 FILLER_22_335
*1279 FILLER_22_360
*1280 FILLER_22_390
*1281 FILLER_22_41
*1282 FILLER_22_53
*1283 FILLER_22_65
*1284 FILLER_22_77
*1285 FILLER_22_81
*1286 FILLER_22_83
*1287 FILLER_22_85
*1288 FILLER_22_97
*1289 FILLER_23_105
*1290 FILLER_23_109
*1291 FILLER_23_111
*1292 FILLER_23_113
*1293 FILLER_23_125
*1294 FILLER_23_137
*1295 FILLER_23_149
*1296 FILLER_23_15
*1297 FILLER_23_161
*1298 FILLER_23_165
*1299 FILLER_23_167
*1300 FILLER_23_169
*1301 FILLER_23_181
*1302 FILLER_23_193
*1303 FILLER_23_205
*1304 FILLER_23_217
*1305 FILLER_23_221
*1306 FILLER_23_223
*1307 FILLER_23_225
*1308 FILLER_23_27
*1309 FILLER_23_277
*1310 FILLER_23_279
*1311 FILLER_23_281
*1312 FILLER_23_285
*1313 FILLER_23_287
*1314 FILLER_23_296
*1315 FILLER_23_3
*1316 FILLER_23_308
*1317 FILLER_23_312
*1318 FILLER_23_317
*1319 FILLER_23_319
*1320 FILLER_23_333
*1321 FILLER_23_335
*1322 FILLER_23_355
*1323 FILLER_23_364
*1324 FILLER_23_372
*1325 FILLER_23_39
*1326 FILLER_23_406
*1327 FILLER_23_51
*1328 FILLER_23_55
*1329 FILLER_23_57
*1330 FILLER_23_69
*1331 FILLER_23_81
*1332 FILLER_23_93
*1333 FILLER_24_109
*1334 FILLER_24_121
*1335 FILLER_24_133
*1336 FILLER_24_137
*1337 FILLER_24_139
*1338 FILLER_24_141
*1339 FILLER_24_15
*1340 FILLER_24_153
*1341 FILLER_24_165
*1342 FILLER_24_177
*1343 FILLER_24_189
*1344 FILLER_24_193
*1345 FILLER_24_195
*1346 FILLER_24_197
*1347 FILLER_24_209
*1348 FILLER_24_221
*1349 FILLER_24_229
*1350 FILLER_24_253
*1351 FILLER_24_27
*1352 FILLER_24_271
*1353 FILLER_24_280
*1354 FILLER_24_282
*1355 FILLER_24_29
*1356 FILLER_24_299
*1357 FILLER_24_3
*1358 FILLER_24_307
*1359 FILLER_24_309
*1360 FILLER_24_327
*1361 FILLER_24_336
*1362 FILLER_24_338
*1363 FILLER_24_363
*1364 FILLER_24_368
*1365 FILLER_24_41
*1366 FILLER_24_53
*1367 FILLER_24_65
*1368 FILLER_24_77
*1369 FILLER_24_81
*1370 FILLER_24_83
*1371 FILLER_24_85
*1372 FILLER_24_97
*1373 FILLER_25_105
*1374 FILLER_25_109
*1375 FILLER_25_111
*1376 FILLER_25_113
*1377 FILLER_25_125
*1378 FILLER_25_137
*1379 FILLER_25_149
*1380 FILLER_25_15
*1381 FILLER_25_161
*1382 FILLER_25_165
*1383 FILLER_25_167
*1384 FILLER_25_169
*1385 FILLER_25_181
*1386 FILLER_25_206
*1387 FILLER_25_218
*1388 FILLER_25_222
*1389 FILLER_25_225
*1390 FILLER_25_237
*1391 FILLER_25_241
*1392 FILLER_25_251
*1393 FILLER_25_255
*1394 FILLER_25_257
*1395 FILLER_25_266
*1396 FILLER_25_27
*1397 FILLER_25_297
*1398 FILLER_25_3
*1399 FILLER_25_363
*1400 FILLER_25_383
*1401 FILLER_25_39
*1402 FILLER_25_51
*1403 FILLER_25_55
*1404 FILLER_25_57
*1405 FILLER_25_69
*1406 FILLER_25_81
*1407 FILLER_25_93
*1408 FILLER_26_109
*1409 FILLER_26_121
*1410 FILLER_26_133
*1411 FILLER_26_137
*1412 FILLER_26_139
*1413 FILLER_26_141
*1414 FILLER_26_15
*1415 FILLER_26_153
*1416 FILLER_26_165
*1417 FILLER_26_177
*1418 FILLER_26_185
*1419 FILLER_26_187
*1420 FILLER_26_197
*1421 FILLER_26_199
*1422 FILLER_26_208
*1423 FILLER_26_220
*1424 FILLER_26_232
*1425 FILLER_26_240
*1426 FILLER_26_248
*1427 FILLER_26_267
*1428 FILLER_26_27
*1429 FILLER_26_276
*1430 FILLER_26_29
*1431 FILLER_26_3
*1432 FILLER_26_305
*1433 FILLER_26_307
*1434 FILLER_26_333
*1435 FILLER_26_345
*1436 FILLER_26_406
*1437 FILLER_26_41
*1438 FILLER_26_53
*1439 FILLER_26_65
*1440 FILLER_26_77
*1441 FILLER_26_81
*1442 FILLER_26_83
*1443 FILLER_26_85
*1444 FILLER_26_97
*1445 FILLER_27_105
*1446 FILLER_27_109
*1447 FILLER_27_111
*1448 FILLER_27_113
*1449 FILLER_27_125
*1450 FILLER_27_137
*1451 FILLER_27_149
*1452 FILLER_27_15
*1453 FILLER_27_161
*1454 FILLER_27_165
*1455 FILLER_27_167
*1456 FILLER_27_169
*1457 FILLER_27_181
*1458 FILLER_27_193
*1459 FILLER_27_205
*1460 FILLER_27_218
*1461 FILLER_27_222
*1462 FILLER_27_228
*1463 FILLER_27_237
*1464 FILLER_27_241
*1465 FILLER_27_27
*1466 FILLER_27_278
*1467 FILLER_27_289
*1468 FILLER_27_291
*1469 FILLER_27_3
*1470 FILLER_27_300
*1471 FILLER_27_319
*1472 FILLER_27_323
*1473 FILLER_27_335
*1474 FILLER_27_337
*1475 FILLER_27_353
*1476 FILLER_27_357
*1477 FILLER_27_39
*1478 FILLER_27_398
*1479 FILLER_27_51
*1480 FILLER_27_55
*1481 FILLER_27_57
*1482 FILLER_27_69
*1483 FILLER_27_81
*1484 FILLER_27_93
*1485 FILLER_28_109
*1486 FILLER_28_121
*1487 FILLER_28_133
*1488 FILLER_28_137
*1489 FILLER_28_139
*1490 FILLER_28_141
*1491 FILLER_28_15
*1492 FILLER_28_153
*1493 FILLER_28_165
*1494 FILLER_28_177
*1495 FILLER_28_205
*1496 FILLER_28_230
*1497 FILLER_28_234
*1498 FILLER_28_244
*1499 FILLER_28_248
*1500 FILLER_28_261
*1501 FILLER_28_27
*1502 FILLER_28_270
*1503 FILLER_28_272
*1504 FILLER_28_29
*1505 FILLER_28_297
*1506 FILLER_28_3
*1507 FILLER_28_307
*1508 FILLER_28_336
*1509 FILLER_28_344
*1510 FILLER_28_382
*1511 FILLER_28_41
*1512 FILLER_28_53
*1513 FILLER_28_65
*1514 FILLER_28_77
*1515 FILLER_28_81
*1516 FILLER_28_83
*1517 FILLER_28_85
*1518 FILLER_28_97
*1519 FILLER_29_105
*1520 FILLER_29_109
*1521 FILLER_29_111
*1522 FILLER_29_113
*1523 FILLER_29_125
*1524 FILLER_29_137
*1525 FILLER_29_149
*1526 FILLER_29_161
*1527 FILLER_29_165
*1528 FILLER_29_167
*1529 FILLER_29_20
*1530 FILLER_29_201
*1531 FILLER_29_210
*1532 FILLER_29_212
*1533 FILLER_29_223
*1534 FILLER_29_293
*1535 FILLER_29_32
*1536 FILLER_29_391
*1537 FILLER_29_44
*1538 FILLER_29_57
*1539 FILLER_29_69
*1540 FILLER_29_8
*1541 FILLER_29_81
*1542 FILLER_29_93
*1543 FILLER_2_109
*1544 FILLER_2_121
*1545 FILLER_2_133
*1546 FILLER_2_137
*1547 FILLER_2_139
*1548 FILLER_2_141
*1549 FILLER_2_15
*1550 FILLER_2_153
*1551 FILLER_2_165
*1552 FILLER_2_177
*1553 FILLER_2_189
*1554 FILLER_2_193
*1555 FILLER_2_195
*1556 FILLER_2_197
*1557 FILLER_2_209
*1558 FILLER_2_221
*1559 FILLER_2_233
*1560 FILLER_2_245
*1561 FILLER_2_249
*1562 FILLER_2_251
*1563 FILLER_2_253
*1564 FILLER_2_265
*1565 FILLER_2_27
*1566 FILLER_2_277
*1567 FILLER_2_289
*1568 FILLER_2_29
*1569 FILLER_2_3
*1570 FILLER_2_301
*1571 FILLER_2_305
*1572 FILLER_2_307
*1573 FILLER_2_309
*1574 FILLER_2_321
*1575 FILLER_2_333
*1576 FILLER_2_345
*1577 FILLER_2_357
*1578 FILLER_2_361
*1579 FILLER_2_363
*1580 FILLER_2_365
*1581 FILLER_2_377
*1582 FILLER_2_389
*1583 FILLER_2_401
*1584 FILLER_2_405
*1585 FILLER_2_41
*1586 FILLER_2_53
*1587 FILLER_2_65
*1588 FILLER_2_77
*1589 FILLER_2_81
*1590 FILLER_2_83
*1591 FILLER_2_85
*1592 FILLER_2_97
*1593 FILLER_30_109
*1594 FILLER_30_121
*1595 FILLER_30_133
*1596 FILLER_30_137
*1597 FILLER_30_139
*1598 FILLER_30_141
*1599 FILLER_30_15
*1600 FILLER_30_153
*1601 FILLER_30_165
*1602 FILLER_30_194
*1603 FILLER_30_242
*1604 FILLER_30_250
*1605 FILLER_30_269
*1606 FILLER_30_27
*1607 FILLER_30_284
*1608 FILLER_30_29
*1609 FILLER_30_296
*1610 FILLER_30_3
*1611 FILLER_30_326
*1612 FILLER_30_330
*1613 FILLER_30_336
*1614 FILLER_30_340
*1615 FILLER_30_357
*1616 FILLER_30_363
*1617 FILLER_30_41
*1618 FILLER_30_53
*1619 FILLER_30_65
*1620 FILLER_30_77
*1621 FILLER_30_81
*1622 FILLER_30_83
*1623 FILLER_30_85
*1624 FILLER_30_97
*1625 FILLER_31_105
*1626 FILLER_31_109
*1627 FILLER_31_111
*1628 FILLER_31_113
*1629 FILLER_31_125
*1630 FILLER_31_137
*1631 FILLER_31_149
*1632 FILLER_31_15
*1633 FILLER_31_161
*1634 FILLER_31_163
*1635 FILLER_31_167
*1636 FILLER_31_169
*1637 FILLER_31_177
*1638 FILLER_31_179
*1639 FILLER_31_196
*1640 FILLER_31_200
*1641 FILLER_31_221
*1642 FILLER_31_223
*1643 FILLER_31_225
*1644 FILLER_31_233
*1645 FILLER_31_245
*1646 FILLER_31_257
*1647 FILLER_31_261
*1648 FILLER_31_27
*1649 FILLER_31_279
*1650 FILLER_31_3
*1651 FILLER_31_313
*1652 FILLER_31_317
*1653 FILLER_31_332
*1654 FILLER_31_346
*1655 FILLER_31_348
*1656 FILLER_31_389
*1657 FILLER_31_39
*1658 FILLER_31_51
*1659 FILLER_31_55
*1660 FILLER_31_57
*1661 FILLER_31_69
*1662 FILLER_31_81
*1663 FILLER_31_93
*1664 FILLER_32_109
*1665 FILLER_32_121
*1666 FILLER_32_133
*1667 FILLER_32_137
*1668 FILLER_32_139
*1669 FILLER_32_141
*1670 FILLER_32_15
*1671 FILLER_32_153
*1672 FILLER_32_157
*1673 FILLER_32_159
*1674 FILLER_32_168
*1675 FILLER_32_193
*1676 FILLER_32_195
*1677 FILLER_32_212
*1678 FILLER_32_224
*1679 FILLER_32_226
*1680 FILLER_32_239
*1681 FILLER_32_251
*1682 FILLER_32_253
*1683 FILLER_32_27
*1684 FILLER_32_270
*1685 FILLER_32_29
*1686 FILLER_32_3
*1687 FILLER_32_302
*1688 FILLER_32_317
*1689 FILLER_32_389
*1690 FILLER_32_406
*1691 FILLER_32_41
*1692 FILLER_32_53
*1693 FILLER_32_65
*1694 FILLER_32_77
*1695 FILLER_32_81
*1696 FILLER_32_83
*1697 FILLER_32_85
*1698 FILLER_32_97
*1699 FILLER_33_105
*1700 FILLER_33_109
*1701 FILLER_33_111
*1702 FILLER_33_113
*1703 FILLER_33_125
*1704 FILLER_33_137
*1705 FILLER_33_149
*1706 FILLER_33_15
*1707 FILLER_33_151
*1708 FILLER_33_177
*1709 FILLER_33_190
*1710 FILLER_33_202
*1711 FILLER_33_204
*1712 FILLER_33_222
*1713 FILLER_33_225
*1714 FILLER_33_27
*1715 FILLER_33_298
*1716 FILLER_33_3
*1717 FILLER_33_326
*1718 FILLER_33_39
*1719 FILLER_33_391
*1720 FILLER_33_51
*1721 FILLER_33_55
*1722 FILLER_33_57
*1723 FILLER_33_69
*1724 FILLER_33_81
*1725 FILLER_33_93
*1726 FILLER_34_109
*1727 FILLER_34_121
*1728 FILLER_34_133
*1729 FILLER_34_137
*1730 FILLER_34_139
*1731 FILLER_34_141
*1732 FILLER_34_15
*1733 FILLER_34_153
*1734 FILLER_34_165
*1735 FILLER_34_184
*1736 FILLER_34_186
*1737 FILLER_34_195
*1738 FILLER_34_197
*1739 FILLER_34_201
*1740 FILLER_34_219
*1741 FILLER_34_235
*1742 FILLER_34_244
*1743 FILLER_34_248
*1744 FILLER_34_269
*1745 FILLER_34_27
*1746 FILLER_34_275
*1747 FILLER_34_29
*1748 FILLER_34_294
*1749 FILLER_34_298
*1750 FILLER_34_3
*1751 FILLER_34_327
*1752 FILLER_34_352
*1753 FILLER_34_363
*1754 FILLER_34_365
*1755 FILLER_34_389
*1756 FILLER_34_406
*1757 FILLER_34_41
*1758 FILLER_34_53
*1759 FILLER_34_65
*1760 FILLER_34_77
*1761 FILLER_34_81
*1762 FILLER_34_83
*1763 FILLER_34_85
*1764 FILLER_34_97
*1765 FILLER_35_105
*1766 FILLER_35_109
*1767 FILLER_35_111
*1768 FILLER_35_113
*1769 FILLER_35_125
*1770 FILLER_35_137
*1771 FILLER_35_145
*1772 FILLER_35_147
*1773 FILLER_35_15
*1774 FILLER_35_174
*1775 FILLER_35_176
*1776 FILLER_35_201
*1777 FILLER_35_223
*1778 FILLER_35_225
*1779 FILLER_35_233
*1780 FILLER_35_243
*1781 FILLER_35_27
*1782 FILLER_35_3
*1783 FILLER_35_302
*1784 FILLER_35_306
*1785 FILLER_35_308
*1786 FILLER_35_335
*1787 FILLER_35_337
*1788 FILLER_35_370
*1789 FILLER_35_39
*1790 FILLER_35_391
*1791 FILLER_35_51
*1792 FILLER_35_55
*1793 FILLER_35_57
*1794 FILLER_35_69
*1795 FILLER_35_81
*1796 FILLER_35_93
*1797 FILLER_36_109
*1798 FILLER_36_121
*1799 FILLER_36_133
*1800 FILLER_36_137
*1801 FILLER_36_139
*1802 FILLER_36_141
*1803 FILLER_36_15
*1804 FILLER_36_153
*1805 FILLER_36_165
*1806 FILLER_36_183
*1807 FILLER_36_194
*1808 FILLER_36_206
*1809 FILLER_36_210
*1810 FILLER_36_224
*1811 FILLER_36_228
*1812 FILLER_36_230
*1813 FILLER_36_239
*1814 FILLER_36_251
*1815 FILLER_36_27
*1816 FILLER_36_277
*1817 FILLER_36_29
*1818 FILLER_36_3
*1819 FILLER_36_302
*1820 FILLER_36_309
*1821 FILLER_36_311
*1822 FILLER_36_360
*1823 FILLER_36_41
*1824 FILLER_36_53
*1825 FILLER_36_65
*1826 FILLER_36_77
*1827 FILLER_36_81
*1828 FILLER_36_83
*1829 FILLER_36_85
*1830 FILLER_36_97
*1831 FILLER_37_105
*1832 FILLER_37_109
*1833 FILLER_37_111
*1834 FILLER_37_113
*1835 FILLER_37_125
*1836 FILLER_37_137
*1837 FILLER_37_149
*1838 FILLER_37_15
*1839 FILLER_37_164
*1840 FILLER_37_186
*1841 FILLER_37_198
*1842 FILLER_37_202
*1843 FILLER_37_208
*1844 FILLER_37_212
*1845 FILLER_37_221
*1846 FILLER_37_223
*1847 FILLER_37_225
*1848 FILLER_37_243
*1849 FILLER_37_254
*1850 FILLER_37_256
*1851 FILLER_37_27
*1852 FILLER_37_273
*1853 FILLER_37_277
*1854 FILLER_37_279
*1855 FILLER_37_281
*1856 FILLER_37_283
*1857 FILLER_37_3
*1858 FILLER_37_353
*1859 FILLER_37_355
*1860 FILLER_37_375
*1861 FILLER_37_39
*1862 FILLER_37_393
*1863 FILLER_37_51
*1864 FILLER_37_55
*1865 FILLER_37_57
*1866 FILLER_37_69
*1867 FILLER_37_81
*1868 FILLER_37_93
*1869 FILLER_38_109
*1870 FILLER_38_121
*1871 FILLER_38_133
*1872 FILLER_38_137
*1873 FILLER_38_139
*1874 FILLER_38_141
*1875 FILLER_38_15
*1876 FILLER_38_153
*1877 FILLER_38_155
*1878 FILLER_38_191
*1879 FILLER_38_197
*1880 FILLER_38_248
*1881 FILLER_38_27
*1882 FILLER_38_273
*1883 FILLER_38_277
*1884 FILLER_38_279
*1885 FILLER_38_286
*1886 FILLER_38_29
*1887 FILLER_38_298
*1888 FILLER_38_3
*1889 FILLER_38_307
*1890 FILLER_38_309
*1891 FILLER_38_313
*1892 FILLER_38_405
*1893 FILLER_38_41
*1894 FILLER_38_53
*1895 FILLER_38_65
*1896 FILLER_38_77
*1897 FILLER_38_81
*1898 FILLER_38_83
*1899 FILLER_38_85
*1900 FILLER_38_97
*1901 FILLER_39_105
*1902 FILLER_39_109
*1903 FILLER_39_111
*1904 FILLER_39_113
*1905 FILLER_39_125
*1906 FILLER_39_137
*1907 FILLER_39_149
*1908 FILLER_39_15
*1909 FILLER_39_161
*1910 FILLER_39_165
*1911 FILLER_39_167
*1912 FILLER_39_169
*1913 FILLER_39_171
*1914 FILLER_39_237
*1915 FILLER_39_27
*1916 FILLER_39_274
*1917 FILLER_39_278
*1918 FILLER_39_294
*1919 FILLER_39_3
*1920 FILLER_39_306
*1921 FILLER_39_319
*1922 FILLER_39_321
*1923 FILLER_39_330
*1924 FILLER_39_334
*1925 FILLER_39_345
*1926 FILLER_39_349
*1927 FILLER_39_355
*1928 FILLER_39_359
*1929 FILLER_39_370
*1930 FILLER_39_39
*1931 FILLER_39_390
*1932 FILLER_39_401
*1933 FILLER_39_51
*1934 FILLER_39_55
*1935 FILLER_39_57
*1936 FILLER_39_69
*1937 FILLER_39_81
*1938 FILLER_39_93
*1939 FILLER_3_105
*1940 FILLER_3_109
*1941 FILLER_3_111
*1942 FILLER_3_113
*1943 FILLER_3_125
*1944 FILLER_3_137
*1945 FILLER_3_149
*1946 FILLER_3_15
*1947 FILLER_3_161
*1948 FILLER_3_165
*1949 FILLER_3_167
*1950 FILLER_3_169
*1951 FILLER_3_181
*1952 FILLER_3_193
*1953 FILLER_3_205
*1954 FILLER_3_217
*1955 FILLER_3_221
*1956 FILLER_3_223
*1957 FILLER_3_225
*1958 FILLER_3_237
*1959 FILLER_3_249
*1960 FILLER_3_261
*1961 FILLER_3_27
*1962 FILLER_3_273
*1963 FILLER_3_277
*1964 FILLER_3_279
*1965 FILLER_3_281
*1966 FILLER_3_293
*1967 FILLER_3_3
*1968 FILLER_3_305
*1969 FILLER_3_317
*1970 FILLER_3_329
*1971 FILLER_3_333
*1972 FILLER_3_335
*1973 FILLER_3_337
*1974 FILLER_3_349
*1975 FILLER_3_361
*1976 FILLER_3_373
*1977 FILLER_3_385
*1978 FILLER_3_389
*1979 FILLER_3_39
*1980 FILLER_3_391
*1981 FILLER_3_393
*1982 FILLER_3_405
*1983 FILLER_3_51
*1984 FILLER_3_55
*1985 FILLER_3_57
*1986 FILLER_3_69
*1987 FILLER_3_81
*1988 FILLER_3_93
*1989 FILLER_40_109
*1990 FILLER_40_121
*1991 FILLER_40_133
*1992 FILLER_40_137
*1993 FILLER_40_139
*1994 FILLER_40_141
*1995 FILLER_40_15
*1996 FILLER_40_153
*1997 FILLER_40_165
*1998 FILLER_40_169
*1999 FILLER_40_194
*2000 FILLER_40_219
*2001 FILLER_40_223
*2002 FILLER_40_247
*2003 FILLER_40_251
*2004 FILLER_40_259
*2005 FILLER_40_265
*2006 FILLER_40_267
*2007 FILLER_40_27
*2008 FILLER_40_270
*2009 FILLER_40_276
*2010 FILLER_40_29
*2011 FILLER_40_293
*2012 FILLER_40_295
*2013 FILLER_40_3
*2014 FILLER_40_304
*2015 FILLER_40_346
*2016 FILLER_40_355
*2017 FILLER_40_365
*2018 FILLER_40_367
*2019 FILLER_40_384
*2020 FILLER_40_388
*2021 FILLER_40_390
*2022 FILLER_40_41
*2023 FILLER_40_53
*2024 FILLER_40_65
*2025 FILLER_40_77
*2026 FILLER_40_81
*2027 FILLER_40_83
*2028 FILLER_40_85
*2029 FILLER_40_97
*2030 FILLER_41_105
*2031 FILLER_41_109
*2032 FILLER_41_111
*2033 FILLER_41_113
*2034 FILLER_41_125
*2035 FILLER_41_137
*2036 FILLER_41_149
*2037 FILLER_41_15
*2038 FILLER_41_161
*2039 FILLER_41_165
*2040 FILLER_41_167
*2041 FILLER_41_169
*2042 FILLER_41_173
*2043 FILLER_41_186
*2044 FILLER_41_211
*2045 FILLER_41_223
*2046 FILLER_41_241
*2047 FILLER_41_27
*2048 FILLER_41_288
*2049 FILLER_41_3
*2050 FILLER_41_334
*2051 FILLER_41_337
*2052 FILLER_41_373
*2053 FILLER_41_39
*2054 FILLER_41_390
*2055 FILLER_41_393
*2056 FILLER_41_402
*2057 FILLER_41_51
*2058 FILLER_41_55
*2059 FILLER_41_57
*2060 FILLER_41_69
*2061 FILLER_41_81
*2062 FILLER_41_93
*2063 FILLER_42_109
*2064 FILLER_42_121
*2065 FILLER_42_133
*2066 FILLER_42_137
*2067 FILLER_42_139
*2068 FILLER_42_141
*2069 FILLER_42_15
*2070 FILLER_42_153
*2071 FILLER_42_165
*2072 FILLER_42_173
*2073 FILLER_42_183
*2074 FILLER_42_195
*2075 FILLER_42_205
*2076 FILLER_42_217
*2077 FILLER_42_229
*2078 FILLER_42_27
*2079 FILLER_42_270
*2080 FILLER_42_29
*2081 FILLER_42_3
*2082 FILLER_42_303
*2083 FILLER_42_307
*2084 FILLER_42_309
*2085 FILLER_42_321
*2086 FILLER_42_323
*2087 FILLER_42_329
*2088 FILLER_42_346
*2089 FILLER_42_358
*2090 FILLER_42_362
*2091 FILLER_42_365
*2092 FILLER_42_377
*2093 FILLER_42_389
*2094 FILLER_42_397
*2095 FILLER_42_41
*2096 FILLER_42_53
*2097 FILLER_42_65
*2098 FILLER_42_77
*2099 FILLER_42_81
*2100 FILLER_42_83
*2101 FILLER_42_85
*2102 FILLER_42_97
*2103 FILLER_43_105
*2104 FILLER_43_109
*2105 FILLER_43_111
*2106 FILLER_43_113
*2107 FILLER_43_125
*2108 FILLER_43_137
*2109 FILLER_43_149
*2110 FILLER_43_15
*2111 FILLER_43_161
*2112 FILLER_43_165
*2113 FILLER_43_167
*2114 FILLER_43_169
*2115 FILLER_43_181
*2116 FILLER_43_193
*2117 FILLER_43_201
*2118 FILLER_43_227
*2119 FILLER_43_239
*2120 FILLER_43_251
*2121 FILLER_43_263
*2122 FILLER_43_27
*2123 FILLER_43_275
*2124 FILLER_43_281
*2125 FILLER_43_288
*2126 FILLER_43_290
*2127 FILLER_43_296
*2128 FILLER_43_3
*2129 FILLER_43_308
*2130 FILLER_43_320
*2131 FILLER_43_337
*2132 FILLER_43_349
*2133 FILLER_43_361
*2134 FILLER_43_373
*2135 FILLER_43_385
*2136 FILLER_43_389
*2137 FILLER_43_39
*2138 FILLER_43_391
*2139 FILLER_43_393
*2140 FILLER_43_405
*2141 FILLER_43_51
*2142 FILLER_43_55
*2143 FILLER_43_57
*2144 FILLER_43_69
*2145 FILLER_43_81
*2146 FILLER_43_93
*2147 FILLER_44_109
*2148 FILLER_44_121
*2149 FILLER_44_133
*2150 FILLER_44_137
*2151 FILLER_44_139
*2152 FILLER_44_141
*2153 FILLER_44_15
*2154 FILLER_44_153
*2155 FILLER_44_165
*2156 FILLER_44_177
*2157 FILLER_44_189
*2158 FILLER_44_193
*2159 FILLER_44_195
*2160 FILLER_44_197
*2161 FILLER_44_209
*2162 FILLER_44_211
*2163 FILLER_44_228
*2164 FILLER_44_240
*2165 FILLER_44_253
*2166 FILLER_44_265
*2167 FILLER_44_27
*2168 FILLER_44_29
*2169 FILLER_44_3
*2170 FILLER_44_302
*2171 FILLER_44_306
*2172 FILLER_44_309
*2173 FILLER_44_321
*2174 FILLER_44_333
*2175 FILLER_44_345
*2176 FILLER_44_357
*2177 FILLER_44_361
*2178 FILLER_44_363
*2179 FILLER_44_365
*2180 FILLER_44_377
*2181 FILLER_44_389
*2182 FILLER_44_401
*2183 FILLER_44_405
*2184 FILLER_44_41
*2185 FILLER_44_53
*2186 FILLER_44_65
*2187 FILLER_44_77
*2188 FILLER_44_81
*2189 FILLER_44_83
*2190 FILLER_44_85
*2191 FILLER_44_97
*2192 FILLER_45_105
*2193 FILLER_45_109
*2194 FILLER_45_111
*2195 FILLER_45_113
*2196 FILLER_45_125
*2197 FILLER_45_137
*2198 FILLER_45_149
*2199 FILLER_45_15
*2200 FILLER_45_161
*2201 FILLER_45_165
*2202 FILLER_45_167
*2203 FILLER_45_169
*2204 FILLER_45_181
*2205 FILLER_45_193
*2206 FILLER_45_205
*2207 FILLER_45_217
*2208 FILLER_45_221
*2209 FILLER_45_223
*2210 FILLER_45_225
*2211 FILLER_45_237
*2212 FILLER_45_249
*2213 FILLER_45_261
*2214 FILLER_45_269
*2215 FILLER_45_27
*2216 FILLER_45_271
*2217 FILLER_45_286
*2218 FILLER_45_3
*2219 FILLER_45_304
*2220 FILLER_45_316
*2221 FILLER_45_328
*2222 FILLER_45_337
*2223 FILLER_45_349
*2224 FILLER_45_361
*2225 FILLER_45_373
*2226 FILLER_45_385
*2227 FILLER_45_389
*2228 FILLER_45_39
*2229 FILLER_45_391
*2230 FILLER_45_393
*2231 FILLER_45_405
*2232 FILLER_45_51
*2233 FILLER_45_55
*2234 FILLER_45_57
*2235 FILLER_45_69
*2236 FILLER_45_81
*2237 FILLER_45_93
*2238 FILLER_46_109
*2239 FILLER_46_121
*2240 FILLER_46_133
*2241 FILLER_46_137
*2242 FILLER_46_139
*2243 FILLER_46_141
*2244 FILLER_46_15
*2245 FILLER_46_153
*2246 FILLER_46_165
*2247 FILLER_46_177
*2248 FILLER_46_189
*2249 FILLER_46_193
*2250 FILLER_46_195
*2251 FILLER_46_197
*2252 FILLER_46_209
*2253 FILLER_46_221
*2254 FILLER_46_233
*2255 FILLER_46_245
*2256 FILLER_46_249
*2257 FILLER_46_251
*2258 FILLER_46_253
*2259 FILLER_46_265
*2260 FILLER_46_27
*2261 FILLER_46_277
*2262 FILLER_46_279
*2263 FILLER_46_288
*2264 FILLER_46_29
*2265 FILLER_46_290
*2266 FILLER_46_299
*2267 FILLER_46_3
*2268 FILLER_46_307
*2269 FILLER_46_309
*2270 FILLER_46_321
*2271 FILLER_46_333
*2272 FILLER_46_345
*2273 FILLER_46_357
*2274 FILLER_46_361
*2275 FILLER_46_363
*2276 FILLER_46_365
*2277 FILLER_46_377
*2278 FILLER_46_389
*2279 FILLER_46_401
*2280 FILLER_46_405
*2281 FILLER_46_41
*2282 FILLER_46_53
*2283 FILLER_46_65
*2284 FILLER_46_77
*2285 FILLER_46_81
*2286 FILLER_46_83
*2287 FILLER_46_85
*2288 FILLER_46_97
*2289 FILLER_47_105
*2290 FILLER_47_109
*2291 FILLER_47_111
*2292 FILLER_47_113
*2293 FILLER_47_125
*2294 FILLER_47_137
*2295 FILLER_47_149
*2296 FILLER_47_15
*2297 FILLER_47_161
*2298 FILLER_47_165
*2299 FILLER_47_167
*2300 FILLER_47_169
*2301 FILLER_47_181
*2302 FILLER_47_193
*2303 FILLER_47_205
*2304 FILLER_47_217
*2305 FILLER_47_221
*2306 FILLER_47_223
*2307 FILLER_47_225
*2308 FILLER_47_237
*2309 FILLER_47_249
*2310 FILLER_47_261
*2311 FILLER_47_27
*2312 FILLER_47_273
*2313 FILLER_47_277
*2314 FILLER_47_279
*2315 FILLER_47_281
*2316 FILLER_47_293
*2317 FILLER_47_3
*2318 FILLER_47_305
*2319 FILLER_47_317
*2320 FILLER_47_329
*2321 FILLER_47_333
*2322 FILLER_47_335
*2323 FILLER_47_337
*2324 FILLER_47_349
*2325 FILLER_47_361
*2326 FILLER_47_373
*2327 FILLER_47_385
*2328 FILLER_47_389
*2329 FILLER_47_39
*2330 FILLER_47_391
*2331 FILLER_47_393
*2332 FILLER_47_405
*2333 FILLER_47_51
*2334 FILLER_47_55
*2335 FILLER_47_57
*2336 FILLER_47_69
*2337 FILLER_47_81
*2338 FILLER_47_93
*2339 FILLER_48_109
*2340 FILLER_48_121
*2341 FILLER_48_133
*2342 FILLER_48_137
*2343 FILLER_48_139
*2344 FILLER_48_141
*2345 FILLER_48_15
*2346 FILLER_48_153
*2347 FILLER_48_165
*2348 FILLER_48_177
*2349 FILLER_48_189
*2350 FILLER_48_193
*2351 FILLER_48_195
*2352 FILLER_48_197
*2353 FILLER_48_209
*2354 FILLER_48_221
*2355 FILLER_48_233
*2356 FILLER_48_245
*2357 FILLER_48_249
*2358 FILLER_48_251
*2359 FILLER_48_253
*2360 FILLER_48_265
*2361 FILLER_48_27
*2362 FILLER_48_277
*2363 FILLER_48_289
*2364 FILLER_48_29
*2365 FILLER_48_3
*2366 FILLER_48_301
*2367 FILLER_48_305
*2368 FILLER_48_307
*2369 FILLER_48_309
*2370 FILLER_48_321
*2371 FILLER_48_333
*2372 FILLER_48_345
*2373 FILLER_48_357
*2374 FILLER_48_361
*2375 FILLER_48_363
*2376 FILLER_48_365
*2377 FILLER_48_377
*2378 FILLER_48_389
*2379 FILLER_48_401
*2380 FILLER_48_405
*2381 FILLER_48_41
*2382 FILLER_48_53
*2383 FILLER_48_65
*2384 FILLER_48_77
*2385 FILLER_48_81
*2386 FILLER_48_83
*2387 FILLER_48_85
*2388 FILLER_48_97
*2389 FILLER_49_105
*2390 FILLER_49_109
*2391 FILLER_49_111
*2392 FILLER_49_113
*2393 FILLER_49_125
*2394 FILLER_49_137
*2395 FILLER_49_149
*2396 FILLER_49_15
*2397 FILLER_49_161
*2398 FILLER_49_165
*2399 FILLER_49_167
*2400 FILLER_49_169
*2401 FILLER_49_181
*2402 FILLER_49_193
*2403 FILLER_49_205
*2404 FILLER_49_217
*2405 FILLER_49_221
*2406 FILLER_49_223
*2407 FILLER_49_225
*2408 FILLER_49_237
*2409 FILLER_49_249
*2410 FILLER_49_261
*2411 FILLER_49_27
*2412 FILLER_49_273
*2413 FILLER_49_277
*2414 FILLER_49_279
*2415 FILLER_49_281
*2416 FILLER_49_293
*2417 FILLER_49_3
*2418 FILLER_49_305
*2419 FILLER_49_317
*2420 FILLER_49_329
*2421 FILLER_49_333
*2422 FILLER_49_335
*2423 FILLER_49_337
*2424 FILLER_49_349
*2425 FILLER_49_361
*2426 FILLER_49_373
*2427 FILLER_49_385
*2428 FILLER_49_389
*2429 FILLER_49_39
*2430 FILLER_49_391
*2431 FILLER_49_393
*2432 FILLER_49_405
*2433 FILLER_49_51
*2434 FILLER_49_55
*2435 FILLER_49_57
*2436 FILLER_49_69
*2437 FILLER_49_81
*2438 FILLER_49_93
*2439 FILLER_4_109
*2440 FILLER_4_121
*2441 FILLER_4_133
*2442 FILLER_4_137
*2443 FILLER_4_139
*2444 FILLER_4_141
*2445 FILLER_4_15
*2446 FILLER_4_153
*2447 FILLER_4_165
*2448 FILLER_4_177
*2449 FILLER_4_189
*2450 FILLER_4_193
*2451 FILLER_4_195
*2452 FILLER_4_197
*2453 FILLER_4_209
*2454 FILLER_4_221
*2455 FILLER_4_233
*2456 FILLER_4_245
*2457 FILLER_4_249
*2458 FILLER_4_251
*2459 FILLER_4_253
*2460 FILLER_4_265
*2461 FILLER_4_27
*2462 FILLER_4_277
*2463 FILLER_4_289
*2464 FILLER_4_29
*2465 FILLER_4_3
*2466 FILLER_4_301
*2467 FILLER_4_305
*2468 FILLER_4_307
*2469 FILLER_4_309
*2470 FILLER_4_321
*2471 FILLER_4_333
*2472 FILLER_4_345
*2473 FILLER_4_357
*2474 FILLER_4_361
*2475 FILLER_4_363
*2476 FILLER_4_365
*2477 FILLER_4_377
*2478 FILLER_4_389
*2479 FILLER_4_401
*2480 FILLER_4_405
*2481 FILLER_4_41
*2482 FILLER_4_53
*2483 FILLER_4_65
*2484 FILLER_4_77
*2485 FILLER_4_81
*2486 FILLER_4_83
*2487 FILLER_4_85
*2488 FILLER_4_97
*2489 FILLER_50_109
*2490 FILLER_50_121
*2491 FILLER_50_133
*2492 FILLER_50_137
*2493 FILLER_50_139
*2494 FILLER_50_141
*2495 FILLER_50_15
*2496 FILLER_50_153
*2497 FILLER_50_165
*2498 FILLER_50_177
*2499 FILLER_50_189
*2500 FILLER_50_193
*2501 FILLER_50_195
*2502 FILLER_50_197
*2503 FILLER_50_209
*2504 FILLER_50_221
*2505 FILLER_50_233
*2506 FILLER_50_245
*2507 FILLER_50_249
*2508 FILLER_50_251
*2509 FILLER_50_253
*2510 FILLER_50_265
*2511 FILLER_50_27
*2512 FILLER_50_277
*2513 FILLER_50_289
*2514 FILLER_50_29
*2515 FILLER_50_3
*2516 FILLER_50_301
*2517 FILLER_50_305
*2518 FILLER_50_307
*2519 FILLER_50_309
*2520 FILLER_50_321
*2521 FILLER_50_333
*2522 FILLER_50_345
*2523 FILLER_50_357
*2524 FILLER_50_361
*2525 FILLER_50_363
*2526 FILLER_50_365
*2527 FILLER_50_377
*2528 FILLER_50_389
*2529 FILLER_50_401
*2530 FILLER_50_405
*2531 FILLER_50_41
*2532 FILLER_50_53
*2533 FILLER_50_65
*2534 FILLER_50_77
*2535 FILLER_50_81
*2536 FILLER_50_83
*2537 FILLER_50_85
*2538 FILLER_50_97
*2539 FILLER_51_105
*2540 FILLER_51_109
*2541 FILLER_51_111
*2542 FILLER_51_113
*2543 FILLER_51_125
*2544 FILLER_51_137
*2545 FILLER_51_149
*2546 FILLER_51_15
*2547 FILLER_51_161
*2548 FILLER_51_165
*2549 FILLER_51_167
*2550 FILLER_51_169
*2551 FILLER_51_181
*2552 FILLER_51_193
*2553 FILLER_51_205
*2554 FILLER_51_217
*2555 FILLER_51_221
*2556 FILLER_51_223
*2557 FILLER_51_225
*2558 FILLER_51_237
*2559 FILLER_51_249
*2560 FILLER_51_261
*2561 FILLER_51_27
*2562 FILLER_51_273
*2563 FILLER_51_277
*2564 FILLER_51_279
*2565 FILLER_51_281
*2566 FILLER_51_293
*2567 FILLER_51_3
*2568 FILLER_51_305
*2569 FILLER_51_317
*2570 FILLER_51_329
*2571 FILLER_51_333
*2572 FILLER_51_335
*2573 FILLER_51_337
*2574 FILLER_51_349
*2575 FILLER_51_361
*2576 FILLER_51_373
*2577 FILLER_51_385
*2578 FILLER_51_389
*2579 FILLER_51_39
*2580 FILLER_51_391
*2581 FILLER_51_393
*2582 FILLER_51_405
*2583 FILLER_51_51
*2584 FILLER_51_55
*2585 FILLER_51_57
*2586 FILLER_51_69
*2587 FILLER_51_81
*2588 FILLER_51_93
*2589 FILLER_52_109
*2590 FILLER_52_121
*2591 FILLER_52_133
*2592 FILLER_52_137
*2593 FILLER_52_139
*2594 FILLER_52_141
*2595 FILLER_52_15
*2596 FILLER_52_153
*2597 FILLER_52_165
*2598 FILLER_52_177
*2599 FILLER_52_189
*2600 FILLER_52_193
*2601 FILLER_52_195
*2602 FILLER_52_197
*2603 FILLER_52_209
*2604 FILLER_52_221
*2605 FILLER_52_233
*2606 FILLER_52_245
*2607 FILLER_52_249
*2608 FILLER_52_251
*2609 FILLER_52_253
*2610 FILLER_52_265
*2611 FILLER_52_27
*2612 FILLER_52_277
*2613 FILLER_52_289
*2614 FILLER_52_29
*2615 FILLER_52_3
*2616 FILLER_52_301
*2617 FILLER_52_305
*2618 FILLER_52_307
*2619 FILLER_52_309
*2620 FILLER_52_321
*2621 FILLER_52_333
*2622 FILLER_52_345
*2623 FILLER_52_357
*2624 FILLER_52_361
*2625 FILLER_52_363
*2626 FILLER_52_365
*2627 FILLER_52_377
*2628 FILLER_52_389
*2629 FILLER_52_401
*2630 FILLER_52_405
*2631 FILLER_52_41
*2632 FILLER_52_53
*2633 FILLER_52_65
*2634 FILLER_52_77
*2635 FILLER_52_81
*2636 FILLER_52_83
*2637 FILLER_52_85
*2638 FILLER_52_97
*2639 FILLER_53_105
*2640 FILLER_53_109
*2641 FILLER_53_111
*2642 FILLER_53_113
*2643 FILLER_53_125
*2644 FILLER_53_137
*2645 FILLER_53_149
*2646 FILLER_53_15
*2647 FILLER_53_161
*2648 FILLER_53_165
*2649 FILLER_53_167
*2650 FILLER_53_169
*2651 FILLER_53_181
*2652 FILLER_53_193
*2653 FILLER_53_205
*2654 FILLER_53_217
*2655 FILLER_53_221
*2656 FILLER_53_223
*2657 FILLER_53_225
*2658 FILLER_53_237
*2659 FILLER_53_249
*2660 FILLER_53_261
*2661 FILLER_53_27
*2662 FILLER_53_273
*2663 FILLER_53_277
*2664 FILLER_53_279
*2665 FILLER_53_281
*2666 FILLER_53_293
*2667 FILLER_53_3
*2668 FILLER_53_305
*2669 FILLER_53_317
*2670 FILLER_53_329
*2671 FILLER_53_333
*2672 FILLER_53_335
*2673 FILLER_53_337
*2674 FILLER_53_349
*2675 FILLER_53_361
*2676 FILLER_53_373
*2677 FILLER_53_385
*2678 FILLER_53_389
*2679 FILLER_53_39
*2680 FILLER_53_391
*2681 FILLER_53_393
*2682 FILLER_53_405
*2683 FILLER_53_51
*2684 FILLER_53_55
*2685 FILLER_53_57
*2686 FILLER_53_69
*2687 FILLER_53_81
*2688 FILLER_53_93
*2689 FILLER_54_109
*2690 FILLER_54_121
*2691 FILLER_54_133
*2692 FILLER_54_137
*2693 FILLER_54_139
*2694 FILLER_54_141
*2695 FILLER_54_15
*2696 FILLER_54_153
*2697 FILLER_54_165
*2698 FILLER_54_177
*2699 FILLER_54_189
*2700 FILLER_54_193
*2701 FILLER_54_195
*2702 FILLER_54_197
*2703 FILLER_54_209
*2704 FILLER_54_221
*2705 FILLER_54_233
*2706 FILLER_54_245
*2707 FILLER_54_249
*2708 FILLER_54_251
*2709 FILLER_54_253
*2710 FILLER_54_265
*2711 FILLER_54_27
*2712 FILLER_54_277
*2713 FILLER_54_289
*2714 FILLER_54_29
*2715 FILLER_54_3
*2716 FILLER_54_301
*2717 FILLER_54_305
*2718 FILLER_54_307
*2719 FILLER_54_309
*2720 FILLER_54_321
*2721 FILLER_54_333
*2722 FILLER_54_345
*2723 FILLER_54_357
*2724 FILLER_54_361
*2725 FILLER_54_363
*2726 FILLER_54_365
*2727 FILLER_54_377
*2728 FILLER_54_389
*2729 FILLER_54_401
*2730 FILLER_54_405
*2731 FILLER_54_41
*2732 FILLER_54_53
*2733 FILLER_54_65
*2734 FILLER_54_77
*2735 FILLER_54_81
*2736 FILLER_54_83
*2737 FILLER_54_85
*2738 FILLER_54_97
*2739 FILLER_55_105
*2740 FILLER_55_109
*2741 FILLER_55_111
*2742 FILLER_55_113
*2743 FILLER_55_125
*2744 FILLER_55_137
*2745 FILLER_55_149
*2746 FILLER_55_15
*2747 FILLER_55_161
*2748 FILLER_55_165
*2749 FILLER_55_167
*2750 FILLER_55_169
*2751 FILLER_55_181
*2752 FILLER_55_193
*2753 FILLER_55_205
*2754 FILLER_55_217
*2755 FILLER_55_221
*2756 FILLER_55_223
*2757 FILLER_55_225
*2758 FILLER_55_237
*2759 FILLER_55_249
*2760 FILLER_55_261
*2761 FILLER_55_27
*2762 FILLER_55_273
*2763 FILLER_55_277
*2764 FILLER_55_279
*2765 FILLER_55_281
*2766 FILLER_55_293
*2767 FILLER_55_3
*2768 FILLER_55_305
*2769 FILLER_55_317
*2770 FILLER_55_329
*2771 FILLER_55_333
*2772 FILLER_55_335
*2773 FILLER_55_337
*2774 FILLER_55_349
*2775 FILLER_55_361
*2776 FILLER_55_373
*2777 FILLER_55_385
*2778 FILLER_55_389
*2779 FILLER_55_39
*2780 FILLER_55_391
*2781 FILLER_55_393
*2782 FILLER_55_405
*2783 FILLER_55_51
*2784 FILLER_55_55
*2785 FILLER_55_57
*2786 FILLER_55_69
*2787 FILLER_55_81
*2788 FILLER_55_93
*2789 FILLER_56_109
*2790 FILLER_56_121
*2791 FILLER_56_133
*2792 FILLER_56_137
*2793 FILLER_56_139
*2794 FILLER_56_141
*2795 FILLER_56_15
*2796 FILLER_56_153
*2797 FILLER_56_165
*2798 FILLER_56_177
*2799 FILLER_56_189
*2800 FILLER_56_193
*2801 FILLER_56_195
*2802 FILLER_56_197
*2803 FILLER_56_209
*2804 FILLER_56_221
*2805 FILLER_56_233
*2806 FILLER_56_245
*2807 FILLER_56_249
*2808 FILLER_56_251
*2809 FILLER_56_253
*2810 FILLER_56_265
*2811 FILLER_56_27
*2812 FILLER_56_277
*2813 FILLER_56_289
*2814 FILLER_56_29
*2815 FILLER_56_3
*2816 FILLER_56_301
*2817 FILLER_56_305
*2818 FILLER_56_307
*2819 FILLER_56_309
*2820 FILLER_56_321
*2821 FILLER_56_333
*2822 FILLER_56_345
*2823 FILLER_56_357
*2824 FILLER_56_361
*2825 FILLER_56_363
*2826 FILLER_56_365
*2827 FILLER_56_377
*2828 FILLER_56_389
*2829 FILLER_56_401
*2830 FILLER_56_405
*2831 FILLER_56_41
*2832 FILLER_56_53
*2833 FILLER_56_65
*2834 FILLER_56_77
*2835 FILLER_56_81
*2836 FILLER_56_83
*2837 FILLER_56_85
*2838 FILLER_56_97
*2839 FILLER_57_105
*2840 FILLER_57_109
*2841 FILLER_57_111
*2842 FILLER_57_113
*2843 FILLER_57_125
*2844 FILLER_57_137
*2845 FILLER_57_149
*2846 FILLER_57_15
*2847 FILLER_57_161
*2848 FILLER_57_165
*2849 FILLER_57_167
*2850 FILLER_57_169
*2851 FILLER_57_181
*2852 FILLER_57_193
*2853 FILLER_57_205
*2854 FILLER_57_217
*2855 FILLER_57_221
*2856 FILLER_57_223
*2857 FILLER_57_225
*2858 FILLER_57_237
*2859 FILLER_57_249
*2860 FILLER_57_261
*2861 FILLER_57_27
*2862 FILLER_57_273
*2863 FILLER_57_277
*2864 FILLER_57_279
*2865 FILLER_57_281
*2866 FILLER_57_293
*2867 FILLER_57_3
*2868 FILLER_57_305
*2869 FILLER_57_317
*2870 FILLER_57_329
*2871 FILLER_57_333
*2872 FILLER_57_335
*2873 FILLER_57_337
*2874 FILLER_57_349
*2875 FILLER_57_361
*2876 FILLER_57_373
*2877 FILLER_57_385
*2878 FILLER_57_389
*2879 FILLER_57_39
*2880 FILLER_57_391
*2881 FILLER_57_393
*2882 FILLER_57_405
*2883 FILLER_57_51
*2884 FILLER_57_55
*2885 FILLER_57_57
*2886 FILLER_57_69
*2887 FILLER_57_81
*2888 FILLER_57_93
*2889 FILLER_58_109
*2890 FILLER_58_121
*2891 FILLER_58_133
*2892 FILLER_58_137
*2893 FILLER_58_139
*2894 FILLER_58_141
*2895 FILLER_58_15
*2896 FILLER_58_153
*2897 FILLER_58_165
*2898 FILLER_58_177
*2899 FILLER_58_189
*2900 FILLER_58_193
*2901 FILLER_58_195
*2902 FILLER_58_197
*2903 FILLER_58_209
*2904 FILLER_58_221
*2905 FILLER_58_233
*2906 FILLER_58_245
*2907 FILLER_58_249
*2908 FILLER_58_251
*2909 FILLER_58_253
*2910 FILLER_58_265
*2911 FILLER_58_27
*2912 FILLER_58_277
*2913 FILLER_58_289
*2914 FILLER_58_29
*2915 FILLER_58_3
*2916 FILLER_58_301
*2917 FILLER_58_305
*2918 FILLER_58_307
*2919 FILLER_58_309
*2920 FILLER_58_321
*2921 FILLER_58_333
*2922 FILLER_58_345
*2923 FILLER_58_357
*2924 FILLER_58_361
*2925 FILLER_58_363
*2926 FILLER_58_365
*2927 FILLER_58_377
*2928 FILLER_58_389
*2929 FILLER_58_401
*2930 FILLER_58_405
*2931 FILLER_58_41
*2932 FILLER_58_53
*2933 FILLER_58_65
*2934 FILLER_58_77
*2935 FILLER_58_81
*2936 FILLER_58_83
*2937 FILLER_58_85
*2938 FILLER_58_97
*2939 FILLER_59_105
*2940 FILLER_59_109
*2941 FILLER_59_111
*2942 FILLER_59_113
*2943 FILLER_59_125
*2944 FILLER_59_137
*2945 FILLER_59_149
*2946 FILLER_59_15
*2947 FILLER_59_161
*2948 FILLER_59_165
*2949 FILLER_59_167
*2950 FILLER_59_169
*2951 FILLER_59_181
*2952 FILLER_59_193
*2953 FILLER_59_205
*2954 FILLER_59_217
*2955 FILLER_59_221
*2956 FILLER_59_223
*2957 FILLER_59_225
*2958 FILLER_59_237
*2959 FILLER_59_249
*2960 FILLER_59_261
*2961 FILLER_59_27
*2962 FILLER_59_273
*2963 FILLER_59_277
*2964 FILLER_59_279
*2965 FILLER_59_281
*2966 FILLER_59_293
*2967 FILLER_59_3
*2968 FILLER_59_305
*2969 FILLER_59_317
*2970 FILLER_59_329
*2971 FILLER_59_333
*2972 FILLER_59_335
*2973 FILLER_59_337
*2974 FILLER_59_349
*2975 FILLER_59_361
*2976 FILLER_59_373
*2977 FILLER_59_385
*2978 FILLER_59_389
*2979 FILLER_59_39
*2980 FILLER_59_391
*2981 FILLER_59_393
*2982 FILLER_59_405
*2983 FILLER_59_51
*2984 FILLER_59_55
*2985 FILLER_59_57
*2986 FILLER_59_69
*2987 FILLER_59_81
*2988 FILLER_59_93
*2989 FILLER_5_105
*2990 FILLER_5_109
*2991 FILLER_5_111
*2992 FILLER_5_113
*2993 FILLER_5_125
*2994 FILLER_5_137
*2995 FILLER_5_149
*2996 FILLER_5_15
*2997 FILLER_5_161
*2998 FILLER_5_165
*2999 FILLER_5_167
*3000 FILLER_5_169
*3001 FILLER_5_181
*3002 FILLER_5_193
*3003 FILLER_5_205
*3004 FILLER_5_217
*3005 FILLER_5_221
*3006 FILLER_5_223
*3007 FILLER_5_225
*3008 FILLER_5_237
*3009 FILLER_5_249
*3010 FILLER_5_261
*3011 FILLER_5_27
*3012 FILLER_5_273
*3013 FILLER_5_277
*3014 FILLER_5_279
*3015 FILLER_5_281
*3016 FILLER_5_293
*3017 FILLER_5_3
*3018 FILLER_5_305
*3019 FILLER_5_317
*3020 FILLER_5_329
*3021 FILLER_5_333
*3022 FILLER_5_335
*3023 FILLER_5_337
*3024 FILLER_5_349
*3025 FILLER_5_361
*3026 FILLER_5_373
*3027 FILLER_5_385
*3028 FILLER_5_389
*3029 FILLER_5_39
*3030 FILLER_5_391
*3031 FILLER_5_393
*3032 FILLER_5_405
*3033 FILLER_5_51
*3034 FILLER_5_55
*3035 FILLER_5_57
*3036 FILLER_5_69
*3037 FILLER_5_81
*3038 FILLER_5_93
*3039 FILLER_60_109
*3040 FILLER_60_121
*3041 FILLER_60_133
*3042 FILLER_60_137
*3043 FILLER_60_139
*3044 FILLER_60_141
*3045 FILLER_60_15
*3046 FILLER_60_153
*3047 FILLER_60_165
*3048 FILLER_60_177
*3049 FILLER_60_189
*3050 FILLER_60_193
*3051 FILLER_60_195
*3052 FILLER_60_197
*3053 FILLER_60_209
*3054 FILLER_60_221
*3055 FILLER_60_233
*3056 FILLER_60_245
*3057 FILLER_60_249
*3058 FILLER_60_251
*3059 FILLER_60_253
*3060 FILLER_60_265
*3061 FILLER_60_27
*3062 FILLER_60_277
*3063 FILLER_60_289
*3064 FILLER_60_29
*3065 FILLER_60_3
*3066 FILLER_60_301
*3067 FILLER_60_305
*3068 FILLER_60_307
*3069 FILLER_60_309
*3070 FILLER_60_321
*3071 FILLER_60_333
*3072 FILLER_60_345
*3073 FILLER_60_357
*3074 FILLER_60_361
*3075 FILLER_60_363
*3076 FILLER_60_365
*3077 FILLER_60_377
*3078 FILLER_60_389
*3079 FILLER_60_401
*3080 FILLER_60_405
*3081 FILLER_60_41
*3082 FILLER_60_53
*3083 FILLER_60_65
*3084 FILLER_60_77
*3085 FILLER_60_81
*3086 FILLER_60_83
*3087 FILLER_60_85
*3088 FILLER_60_97
*3089 FILLER_61_105
*3090 FILLER_61_109
*3091 FILLER_61_111
*3092 FILLER_61_113
*3093 FILLER_61_125
*3094 FILLER_61_137
*3095 FILLER_61_149
*3096 FILLER_61_15
*3097 FILLER_61_161
*3098 FILLER_61_165
*3099 FILLER_61_167
*3100 FILLER_61_169
*3101 FILLER_61_181
*3102 FILLER_61_193
*3103 FILLER_61_205
*3104 FILLER_61_217
*3105 FILLER_61_221
*3106 FILLER_61_223
*3107 FILLER_61_225
*3108 FILLER_61_237
*3109 FILLER_61_249
*3110 FILLER_61_261
*3111 FILLER_61_27
*3112 FILLER_61_273
*3113 FILLER_61_277
*3114 FILLER_61_279
*3115 FILLER_61_281
*3116 FILLER_61_293
*3117 FILLER_61_3
*3118 FILLER_61_305
*3119 FILLER_61_317
*3120 FILLER_61_329
*3121 FILLER_61_333
*3122 FILLER_61_335
*3123 FILLER_61_337
*3124 FILLER_61_349
*3125 FILLER_61_361
*3126 FILLER_61_373
*3127 FILLER_61_385
*3128 FILLER_61_389
*3129 FILLER_61_39
*3130 FILLER_61_391
*3131 FILLER_61_393
*3132 FILLER_61_405
*3133 FILLER_61_51
*3134 FILLER_61_55
*3135 FILLER_61_57
*3136 FILLER_61_69
*3137 FILLER_61_81
*3138 FILLER_61_93
*3139 FILLER_62_109
*3140 FILLER_62_121
*3141 FILLER_62_133
*3142 FILLER_62_137
*3143 FILLER_62_139
*3144 FILLER_62_141
*3145 FILLER_62_15
*3146 FILLER_62_153
*3147 FILLER_62_165
*3148 FILLER_62_177
*3149 FILLER_62_189
*3150 FILLER_62_193
*3151 FILLER_62_195
*3152 FILLER_62_197
*3153 FILLER_62_209
*3154 FILLER_62_221
*3155 FILLER_62_233
*3156 FILLER_62_245
*3157 FILLER_62_249
*3158 FILLER_62_251
*3159 FILLER_62_253
*3160 FILLER_62_265
*3161 FILLER_62_27
*3162 FILLER_62_277
*3163 FILLER_62_289
*3164 FILLER_62_29
*3165 FILLER_62_3
*3166 FILLER_62_301
*3167 FILLER_62_305
*3168 FILLER_62_307
*3169 FILLER_62_309
*3170 FILLER_62_321
*3171 FILLER_62_333
*3172 FILLER_62_345
*3173 FILLER_62_357
*3174 FILLER_62_361
*3175 FILLER_62_363
*3176 FILLER_62_365
*3177 FILLER_62_377
*3178 FILLER_62_389
*3179 FILLER_62_401
*3180 FILLER_62_405
*3181 FILLER_62_41
*3182 FILLER_62_53
*3183 FILLER_62_65
*3184 FILLER_62_77
*3185 FILLER_62_81
*3186 FILLER_62_83
*3187 FILLER_62_85
*3188 FILLER_62_97
*3189 FILLER_63_105
*3190 FILLER_63_109
*3191 FILLER_63_111
*3192 FILLER_63_113
*3193 FILLER_63_125
*3194 FILLER_63_137
*3195 FILLER_63_149
*3196 FILLER_63_15
*3197 FILLER_63_161
*3198 FILLER_63_165
*3199 FILLER_63_167
*3200 FILLER_63_169
*3201 FILLER_63_181
*3202 FILLER_63_193
*3203 FILLER_63_205
*3204 FILLER_63_217
*3205 FILLER_63_221
*3206 FILLER_63_223
*3207 FILLER_63_225
*3208 FILLER_63_237
*3209 FILLER_63_249
*3210 FILLER_63_261
*3211 FILLER_63_27
*3212 FILLER_63_273
*3213 FILLER_63_277
*3214 FILLER_63_279
*3215 FILLER_63_281
*3216 FILLER_63_293
*3217 FILLER_63_3
*3218 FILLER_63_305
*3219 FILLER_63_317
*3220 FILLER_63_329
*3221 FILLER_63_333
*3222 FILLER_63_335
*3223 FILLER_63_337
*3224 FILLER_63_349
*3225 FILLER_63_361
*3226 FILLER_63_373
*3227 FILLER_63_385
*3228 FILLER_63_389
*3229 FILLER_63_39
*3230 FILLER_63_391
*3231 FILLER_63_393
*3232 FILLER_63_405
*3233 FILLER_63_51
*3234 FILLER_63_55
*3235 FILLER_63_57
*3236 FILLER_63_69
*3237 FILLER_63_81
*3238 FILLER_63_93
*3239 FILLER_64_109
*3240 FILLER_64_111
*3241 FILLER_64_113
*3242 FILLER_64_125
*3243 FILLER_64_137
*3244 FILLER_64_139
*3245 FILLER_64_141
*3246 FILLER_64_15
*3247 FILLER_64_153
*3248 FILLER_64_165
*3249 FILLER_64_167
*3250 FILLER_64_169
*3251 FILLER_64_181
*3252 FILLER_64_193
*3253 FILLER_64_195
*3254 FILLER_64_197
*3255 FILLER_64_209
*3256 FILLER_64_217
*3257 FILLER_64_221
*3258 FILLER_64_223
*3259 FILLER_64_225
*3260 FILLER_64_237
*3261 FILLER_64_249
*3262 FILLER_64_251
*3263 FILLER_64_253
*3264 FILLER_64_265
*3265 FILLER_64_27
*3266 FILLER_64_277
*3267 FILLER_64_279
*3268 FILLER_64_281
*3269 FILLER_64_29
*3270 FILLER_64_293
*3271 FILLER_64_3
*3272 FILLER_64_305
*3273 FILLER_64_307
*3274 FILLER_64_309
*3275 FILLER_64_321
*3276 FILLER_64_333
*3277 FILLER_64_335
*3278 FILLER_64_337
*3279 FILLER_64_349
*3280 FILLER_64_361
*3281 FILLER_64_363
*3282 FILLER_64_365
*3283 FILLER_64_377
*3284 FILLER_64_389
*3285 FILLER_64_391
*3286 FILLER_64_393
*3287 FILLER_64_405
*3288 FILLER_64_41
*3289 FILLER_64_53
*3290 FILLER_64_55
*3291 FILLER_64_57
*3292 FILLER_64_69
*3293 FILLER_64_81
*3294 FILLER_64_83
*3295 FILLER_64_85
*3296 FILLER_64_97
*3297 FILLER_6_109
*3298 FILLER_6_121
*3299 FILLER_6_133
*3300 FILLER_6_137
*3301 FILLER_6_139
*3302 FILLER_6_141
*3303 FILLER_6_15
*3304 FILLER_6_153
*3305 FILLER_6_165
*3306 FILLER_6_177
*3307 FILLER_6_189
*3308 FILLER_6_193
*3309 FILLER_6_195
*3310 FILLER_6_197
*3311 FILLER_6_209
*3312 FILLER_6_221
*3313 FILLER_6_233
*3314 FILLER_6_245
*3315 FILLER_6_249
*3316 FILLER_6_251
*3317 FILLER_6_253
*3318 FILLER_6_265
*3319 FILLER_6_27
*3320 FILLER_6_277
*3321 FILLER_6_289
*3322 FILLER_6_29
*3323 FILLER_6_3
*3324 FILLER_6_301
*3325 FILLER_6_305
*3326 FILLER_6_307
*3327 FILLER_6_309
*3328 FILLER_6_321
*3329 FILLER_6_333
*3330 FILLER_6_345
*3331 FILLER_6_357
*3332 FILLER_6_361
*3333 FILLER_6_363
*3334 FILLER_6_365
*3335 FILLER_6_377
*3336 FILLER_6_389
*3337 FILLER_6_401
*3338 FILLER_6_405
*3339 FILLER_6_41
*3340 FILLER_6_53
*3341 FILLER_6_65
*3342 FILLER_6_77
*3343 FILLER_6_81
*3344 FILLER_6_83
*3345 FILLER_6_85
*3346 FILLER_6_97
*3347 FILLER_7_105
*3348 FILLER_7_109
*3349 FILLER_7_111
*3350 FILLER_7_113
*3351 FILLER_7_125
*3352 FILLER_7_137
*3353 FILLER_7_149
*3354 FILLER_7_15
*3355 FILLER_7_161
*3356 FILLER_7_165
*3357 FILLER_7_167
*3358 FILLER_7_169
*3359 FILLER_7_181
*3360 FILLER_7_193
*3361 FILLER_7_205
*3362 FILLER_7_217
*3363 FILLER_7_221
*3364 FILLER_7_223
*3365 FILLER_7_225
*3366 FILLER_7_237
*3367 FILLER_7_249
*3368 FILLER_7_261
*3369 FILLER_7_27
*3370 FILLER_7_273
*3371 FILLER_7_277
*3372 FILLER_7_279
*3373 FILLER_7_281
*3374 FILLER_7_293
*3375 FILLER_7_3
*3376 FILLER_7_305
*3377 FILLER_7_317
*3378 FILLER_7_329
*3379 FILLER_7_333
*3380 FILLER_7_335
*3381 FILLER_7_337
*3382 FILLER_7_349
*3383 FILLER_7_361
*3384 FILLER_7_373
*3385 FILLER_7_385
*3386 FILLER_7_389
*3387 FILLER_7_39
*3388 FILLER_7_391
*3389 FILLER_7_393
*3390 FILLER_7_405
*3391 FILLER_7_51
*3392 FILLER_7_55
*3393 FILLER_7_57
*3394 FILLER_7_69
*3395 FILLER_7_81
*3396 FILLER_7_93
*3397 FILLER_8_109
*3398 FILLER_8_121
*3399 FILLER_8_133
*3400 FILLER_8_137
*3401 FILLER_8_139
*3402 FILLER_8_141
*3403 FILLER_8_15
*3404 FILLER_8_153
*3405 FILLER_8_165
*3406 FILLER_8_177
*3407 FILLER_8_189
*3408 FILLER_8_193
*3409 FILLER_8_195
*3410 FILLER_8_197
*3411 FILLER_8_209
*3412 FILLER_8_221
*3413 FILLER_8_233
*3414 FILLER_8_245
*3415 FILLER_8_249
*3416 FILLER_8_251
*3417 FILLER_8_253
*3418 FILLER_8_265
*3419 FILLER_8_27
*3420 FILLER_8_277
*3421 FILLER_8_289
*3422 FILLER_8_29
*3423 FILLER_8_3
*3424 FILLER_8_301
*3425 FILLER_8_305
*3426 FILLER_8_307
*3427 FILLER_8_309
*3428 FILLER_8_321
*3429 FILLER_8_333
*3430 FILLER_8_345
*3431 FILLER_8_357
*3432 FILLER_8_361
*3433 FILLER_8_363
*3434 FILLER_8_365
*3435 FILLER_8_377
*3436 FILLER_8_389
*3437 FILLER_8_401
*3438 FILLER_8_405
*3439 FILLER_8_41
*3440 FILLER_8_53
*3441 FILLER_8_65
*3442 FILLER_8_77
*3443 FILLER_8_81
*3444 FILLER_8_83
*3445 FILLER_8_85
*3446 FILLER_8_97
*3447 FILLER_9_105
*3448 FILLER_9_109
*3449 FILLER_9_111
*3450 FILLER_9_113
*3451 FILLER_9_125
*3452 FILLER_9_137
*3453 FILLER_9_149
*3454 FILLER_9_15
*3455 FILLER_9_161
*3456 FILLER_9_165
*3457 FILLER_9_167
*3458 FILLER_9_169
*3459 FILLER_9_181
*3460 FILLER_9_193
*3461 FILLER_9_205
*3462 FILLER_9_217
*3463 FILLER_9_221
*3464 FILLER_9_223
*3465 FILLER_9_225
*3466 FILLER_9_237
*3467 FILLER_9_249
*3468 FILLER_9_261
*3469 FILLER_9_27
*3470 FILLER_9_273
*3471 FILLER_9_277
*3472 FILLER_9_279
*3473 FILLER_9_281
*3474 FILLER_9_293
*3475 FILLER_9_3
*3476 FILLER_9_305
*3477 FILLER_9_317
*3478 FILLER_9_329
*3479 FILLER_9_333
*3480 FILLER_9_335
*3481 FILLER_9_337
*3482 FILLER_9_349
*3483 FILLER_9_361
*3484 FILLER_9_373
*3485 FILLER_9_385
*3486 FILLER_9_389
*3487 FILLER_9_39
*3488 FILLER_9_391
*3489 FILLER_9_393
*3490 FILLER_9_405
*3491 FILLER_9_51
*3492 FILLER_9_55
*3493 FILLER_9_57
*3494 FILLER_9_69
*3495 FILLER_9_81
*3496 FILLER_9_93
*3497 PHY_EDGE_ROW_0_Left_65
*3498 PHY_EDGE_ROW_0_Right_0
*3499 PHY_EDGE_ROW_10_Left_75
*3500 PHY_EDGE_ROW_10_Right_10
*3501 PHY_EDGE_ROW_11_Left_76
*3502 PHY_EDGE_ROW_11_Right_11
*3503 PHY_EDGE_ROW_12_Left_77
*3504 PHY_EDGE_ROW_12_Right_12
*3505 PHY_EDGE_ROW_13_Left_78
*3506 PHY_EDGE_ROW_13_Right_13
*3507 PHY_EDGE_ROW_14_Left_79
*3508 PHY_EDGE_ROW_14_Right_14
*3509 PHY_EDGE_ROW_15_Left_80
*3510 PHY_EDGE_ROW_15_Right_15
*3511 PHY_EDGE_ROW_16_Left_81
*3512 PHY_EDGE_ROW_16_Right_16
*3513 PHY_EDGE_ROW_17_Left_82
*3514 PHY_EDGE_ROW_17_Right_17
*3515 PHY_EDGE_ROW_18_Left_83
*3516 PHY_EDGE_ROW_18_Right_18
*3517 PHY_EDGE_ROW_19_Left_84
*3518 PHY_EDGE_ROW_19_Right_19
*3519 PHY_EDGE_ROW_1_Left_66
*3520 PHY_EDGE_ROW_1_Right_1
*3521 PHY_EDGE_ROW_20_Left_85
*3522 PHY_EDGE_ROW_20_Right_20
*3523 PHY_EDGE_ROW_21_Left_86
*3524 PHY_EDGE_ROW_21_Right_21
*3525 PHY_EDGE_ROW_22_Left_87
*3526 PHY_EDGE_ROW_22_Right_22
*3527 PHY_EDGE_ROW_23_Left_88
*3528 PHY_EDGE_ROW_23_Right_23
*3529 PHY_EDGE_ROW_24_Left_89
*3530 PHY_EDGE_ROW_24_Right_24
*3531 PHY_EDGE_ROW_25_Left_90
*3532 PHY_EDGE_ROW_25_Right_25
*3533 PHY_EDGE_ROW_26_Left_91
*3534 PHY_EDGE_ROW_26_Right_26
*3535 PHY_EDGE_ROW_27_Left_92
*3536 PHY_EDGE_ROW_27_Right_27
*3537 PHY_EDGE_ROW_28_Left_93
*3538 PHY_EDGE_ROW_28_Right_28
*3539 PHY_EDGE_ROW_29_Left_94
*3540 PHY_EDGE_ROW_29_Right_29
*3541 PHY_EDGE_ROW_2_Left_67
*3542 PHY_EDGE_ROW_2_Right_2
*3543 PHY_EDGE_ROW_30_Left_95
*3544 PHY_EDGE_ROW_30_Right_30
*3545 PHY_EDGE_ROW_31_Left_96
*3546 PHY_EDGE_ROW_31_Right_31
*3547 PHY_EDGE_ROW_32_Left_97
*3548 PHY_EDGE_ROW_32_Right_32
*3549 PHY_EDGE_ROW_33_Left_98
*3550 PHY_EDGE_ROW_33_Right_33
*3551 PHY_EDGE_ROW_34_Left_99
*3552 PHY_EDGE_ROW_34_Right_34
*3553 PHY_EDGE_ROW_35_Left_100
*3554 PHY_EDGE_ROW_35_Right_35
*3555 PHY_EDGE_ROW_36_Left_101
*3556 PHY_EDGE_ROW_36_Right_36
*3557 PHY_EDGE_ROW_37_Left_102
*3558 PHY_EDGE_ROW_37_Right_37
*3559 PHY_EDGE_ROW_38_Left_103
*3560 PHY_EDGE_ROW_38_Right_38
*3561 PHY_EDGE_ROW_39_Left_104
*3562 PHY_EDGE_ROW_39_Right_39
*3563 PHY_EDGE_ROW_3_Left_68
*3564 PHY_EDGE_ROW_3_Right_3
*3565 PHY_EDGE_ROW_40_Left_105
*3566 PHY_EDGE_ROW_40_Right_40
*3567 PHY_EDGE_ROW_41_Left_106
*3568 PHY_EDGE_ROW_41_Right_41
*3569 PHY_EDGE_ROW_42_Left_107
*3570 PHY_EDGE_ROW_42_Right_42
*3571 PHY_EDGE_ROW_43_Left_108
*3572 PHY_EDGE_ROW_43_Right_43
*3573 PHY_EDGE_ROW_44_Left_109
*3574 PHY_EDGE_ROW_44_Right_44
*3575 PHY_EDGE_ROW_45_Left_110
*3576 PHY_EDGE_ROW_45_Right_45
*3577 PHY_EDGE_ROW_46_Left_111
*3578 PHY_EDGE_ROW_46_Right_46
*3579 PHY_EDGE_ROW_47_Left_112
*3580 PHY_EDGE_ROW_47_Right_47
*3581 PHY_EDGE_ROW_48_Left_113
*3582 PHY_EDGE_ROW_48_Right_48
*3583 PHY_EDGE_ROW_49_Left_114
*3584 PHY_EDGE_ROW_49_Right_49
*3585 PHY_EDGE_ROW_4_Left_69
*3586 PHY_EDGE_ROW_4_Right_4
*3587 PHY_EDGE_ROW_50_Left_115
*3588 PHY_EDGE_ROW_50_Right_50
*3589 PHY_EDGE_ROW_51_Left_116
*3590 PHY_EDGE_ROW_51_Right_51
*3591 PHY_EDGE_ROW_52_Left_117
*3592 PHY_EDGE_ROW_52_Right_52
*3593 PHY_EDGE_ROW_53_Left_118
*3594 PHY_EDGE_ROW_53_Right_53
*3595 PHY_EDGE_ROW_54_Left_119
*3596 PHY_EDGE_ROW_54_Right_54
*3597 PHY_EDGE_ROW_55_Left_120
*3598 PHY_EDGE_ROW_55_Right_55
*3599 PHY_EDGE_ROW_56_Left_121
*3600 PHY_EDGE_ROW_56_Right_56
*3601 PHY_EDGE_ROW_57_Left_122
*3602 PHY_EDGE_ROW_57_Right_57
*3603 PHY_EDGE_ROW_58_Left_123
*3604 PHY_EDGE_ROW_58_Right_58
*3605 PHY_EDGE_ROW_59_Left_124
*3606 PHY_EDGE_ROW_59_Right_59
*3607 PHY_EDGE_ROW_5_Left_70
*3608 PHY_EDGE_ROW_5_Right_5
*3609 PHY_EDGE_ROW_60_Left_125
*3610 PHY_EDGE_ROW_60_Right_60
*3611 PHY_EDGE_ROW_61_Left_126
*3612 PHY_EDGE_ROW_61_Right_61
*3613 PHY_EDGE_ROW_62_Left_127
*3614 PHY_EDGE_ROW_62_Right_62
*3615 PHY_EDGE_ROW_63_Left_128
*3616 PHY_EDGE_ROW_63_Right_63
*3617 PHY_EDGE_ROW_64_Left_129
*3618 PHY_EDGE_ROW_64_Right_64
*3619 PHY_EDGE_ROW_6_Left_71
*3620 PHY_EDGE_ROW_6_Right_6
*3621 PHY_EDGE_ROW_7_Left_72
*3622 PHY_EDGE_ROW_7_Right_7
*3623 PHY_EDGE_ROW_8_Left_73
*3624 PHY_EDGE_ROW_8_Right_8
*3625 PHY_EDGE_ROW_9_Left_74
*3626 PHY_EDGE_ROW_9_Right_9
*3627 TAP_TAPCELL_ROW_0_130
*3628 TAP_TAPCELL_ROW_0_131
*3629 TAP_TAPCELL_ROW_0_132
*3630 TAP_TAPCELL_ROW_0_133
*3631 TAP_TAPCELL_ROW_0_134
*3632 TAP_TAPCELL_ROW_0_135
*3633 TAP_TAPCELL_ROW_0_136
*3634 TAP_TAPCELL_ROW_0_137
*3635 TAP_TAPCELL_ROW_0_138
*3636 TAP_TAPCELL_ROW_0_139
*3637 TAP_TAPCELL_ROW_0_140
*3638 TAP_TAPCELL_ROW_0_141
*3639 TAP_TAPCELL_ROW_0_142
*3640 TAP_TAPCELL_ROW_0_143
*3641 TAP_TAPCELL_ROW_10_207
*3642 TAP_TAPCELL_ROW_10_208
*3643 TAP_TAPCELL_ROW_10_209
*3644 TAP_TAPCELL_ROW_10_210
*3645 TAP_TAPCELL_ROW_10_211
*3646 TAP_TAPCELL_ROW_10_212
*3647 TAP_TAPCELL_ROW_10_213
*3648 TAP_TAPCELL_ROW_11_214
*3649 TAP_TAPCELL_ROW_11_215
*3650 TAP_TAPCELL_ROW_11_216
*3651 TAP_TAPCELL_ROW_11_217
*3652 TAP_TAPCELL_ROW_11_218
*3653 TAP_TAPCELL_ROW_11_219
*3654 TAP_TAPCELL_ROW_11_220
*3655 TAP_TAPCELL_ROW_12_221
*3656 TAP_TAPCELL_ROW_12_222
*3657 TAP_TAPCELL_ROW_12_223
*3658 TAP_TAPCELL_ROW_12_224
*3659 TAP_TAPCELL_ROW_12_225
*3660 TAP_TAPCELL_ROW_12_226
*3661 TAP_TAPCELL_ROW_12_227
*3662 TAP_TAPCELL_ROW_13_228
*3663 TAP_TAPCELL_ROW_13_229
*3664 TAP_TAPCELL_ROW_13_230
*3665 TAP_TAPCELL_ROW_13_231
*3666 TAP_TAPCELL_ROW_13_232
*3667 TAP_TAPCELL_ROW_13_233
*3668 TAP_TAPCELL_ROW_13_234
*3669 TAP_TAPCELL_ROW_14_235
*3670 TAP_TAPCELL_ROW_14_236
*3671 TAP_TAPCELL_ROW_14_237
*3672 TAP_TAPCELL_ROW_14_238
*3673 TAP_TAPCELL_ROW_14_239
*3674 TAP_TAPCELL_ROW_14_240
*3675 TAP_TAPCELL_ROW_14_241
*3676 TAP_TAPCELL_ROW_15_242
*3677 TAP_TAPCELL_ROW_15_243
*3678 TAP_TAPCELL_ROW_15_244
*3679 TAP_TAPCELL_ROW_15_245
*3680 TAP_TAPCELL_ROW_15_246
*3681 TAP_TAPCELL_ROW_15_247
*3682 TAP_TAPCELL_ROW_15_248
*3683 TAP_TAPCELL_ROW_16_249
*3684 TAP_TAPCELL_ROW_16_250
*3685 TAP_TAPCELL_ROW_16_251
*3686 TAP_TAPCELL_ROW_16_252
*3687 TAP_TAPCELL_ROW_16_253
*3688 TAP_TAPCELL_ROW_16_254
*3689 TAP_TAPCELL_ROW_16_255
*3690 TAP_TAPCELL_ROW_17_256
*3691 TAP_TAPCELL_ROW_17_257
*3692 TAP_TAPCELL_ROW_17_258
*3693 TAP_TAPCELL_ROW_17_259
*3694 TAP_TAPCELL_ROW_17_260
*3695 TAP_TAPCELL_ROW_17_261
*3696 TAP_TAPCELL_ROW_17_262
*3697 TAP_TAPCELL_ROW_18_263
*3698 TAP_TAPCELL_ROW_18_264
*3699 TAP_TAPCELL_ROW_18_265
*3700 TAP_TAPCELL_ROW_18_266
*3701 TAP_TAPCELL_ROW_18_267
*3702 TAP_TAPCELL_ROW_18_268
*3703 TAP_TAPCELL_ROW_18_269
*3704 TAP_TAPCELL_ROW_19_270
*3705 TAP_TAPCELL_ROW_19_271
*3706 TAP_TAPCELL_ROW_19_272
*3707 TAP_TAPCELL_ROW_19_273
*3708 TAP_TAPCELL_ROW_19_274
*3709 TAP_TAPCELL_ROW_19_275
*3710 TAP_TAPCELL_ROW_19_276
*3711 TAP_TAPCELL_ROW_1_144
*3712 TAP_TAPCELL_ROW_1_145
*3713 TAP_TAPCELL_ROW_1_146
*3714 TAP_TAPCELL_ROW_1_147
*3715 TAP_TAPCELL_ROW_1_148
*3716 TAP_TAPCELL_ROW_1_149
*3717 TAP_TAPCELL_ROW_1_150
*3718 TAP_TAPCELL_ROW_20_277
*3719 TAP_TAPCELL_ROW_20_278
*3720 TAP_TAPCELL_ROW_20_279
*3721 TAP_TAPCELL_ROW_20_280
*3722 TAP_TAPCELL_ROW_20_281
*3723 TAP_TAPCELL_ROW_20_282
*3724 TAP_TAPCELL_ROW_20_283
*3725 TAP_TAPCELL_ROW_21_284
*3726 TAP_TAPCELL_ROW_21_285
*3727 TAP_TAPCELL_ROW_21_286
*3728 TAP_TAPCELL_ROW_21_287
*3729 TAP_TAPCELL_ROW_21_288
*3730 TAP_TAPCELL_ROW_21_289
*3731 TAP_TAPCELL_ROW_21_290
*3732 TAP_TAPCELL_ROW_22_291
*3733 TAP_TAPCELL_ROW_22_292
*3734 TAP_TAPCELL_ROW_22_293
*3735 TAP_TAPCELL_ROW_22_294
*3736 TAP_TAPCELL_ROW_22_295
*3737 TAP_TAPCELL_ROW_22_296
*3738 TAP_TAPCELL_ROW_22_297
*3739 TAP_TAPCELL_ROW_23_298
*3740 TAP_TAPCELL_ROW_23_299
*3741 TAP_TAPCELL_ROW_23_300
*3742 TAP_TAPCELL_ROW_23_301
*3743 TAP_TAPCELL_ROW_23_302
*3744 TAP_TAPCELL_ROW_23_303
*3745 TAP_TAPCELL_ROW_23_304
*3746 TAP_TAPCELL_ROW_24_305
*3747 TAP_TAPCELL_ROW_24_306
*3748 TAP_TAPCELL_ROW_24_307
*3749 TAP_TAPCELL_ROW_24_308
*3750 TAP_TAPCELL_ROW_24_309
*3751 TAP_TAPCELL_ROW_24_310
*3752 TAP_TAPCELL_ROW_24_311
*3753 TAP_TAPCELL_ROW_25_312
*3754 TAP_TAPCELL_ROW_25_313
*3755 TAP_TAPCELL_ROW_25_314
*3756 TAP_TAPCELL_ROW_25_315
*3757 TAP_TAPCELL_ROW_25_316
*3758 TAP_TAPCELL_ROW_25_317
*3759 TAP_TAPCELL_ROW_25_318
*3760 TAP_TAPCELL_ROW_26_319
*3761 TAP_TAPCELL_ROW_26_320
*3762 TAP_TAPCELL_ROW_26_321
*3763 TAP_TAPCELL_ROW_26_322
*3764 TAP_TAPCELL_ROW_26_323
*3765 TAP_TAPCELL_ROW_26_324
*3766 TAP_TAPCELL_ROW_26_325
*3767 TAP_TAPCELL_ROW_27_326
*3768 TAP_TAPCELL_ROW_27_327
*3769 TAP_TAPCELL_ROW_27_328
*3770 TAP_TAPCELL_ROW_27_329
*3771 TAP_TAPCELL_ROW_27_330
*3772 TAP_TAPCELL_ROW_27_331
*3773 TAP_TAPCELL_ROW_27_332
*3774 TAP_TAPCELL_ROW_28_333
*3775 TAP_TAPCELL_ROW_28_334
*3776 TAP_TAPCELL_ROW_28_335
*3777 TAP_TAPCELL_ROW_28_336
*3778 TAP_TAPCELL_ROW_28_337
*3779 TAP_TAPCELL_ROW_28_338
*3780 TAP_TAPCELL_ROW_28_339
*3781 TAP_TAPCELL_ROW_29_340
*3782 TAP_TAPCELL_ROW_29_341
*3783 TAP_TAPCELL_ROW_29_342
*3784 TAP_TAPCELL_ROW_29_343
*3785 TAP_TAPCELL_ROW_29_344
*3786 TAP_TAPCELL_ROW_29_345
*3787 TAP_TAPCELL_ROW_29_346
*3788 TAP_TAPCELL_ROW_2_151
*3789 TAP_TAPCELL_ROW_2_152
*3790 TAP_TAPCELL_ROW_2_153
*3791 TAP_TAPCELL_ROW_2_154
*3792 TAP_TAPCELL_ROW_2_155
*3793 TAP_TAPCELL_ROW_2_156
*3794 TAP_TAPCELL_ROW_2_157
*3795 TAP_TAPCELL_ROW_30_347
*3796 TAP_TAPCELL_ROW_30_348
*3797 TAP_TAPCELL_ROW_30_349
*3798 TAP_TAPCELL_ROW_30_350
*3799 TAP_TAPCELL_ROW_30_351
*3800 TAP_TAPCELL_ROW_30_352
*3801 TAP_TAPCELL_ROW_30_353
*3802 TAP_TAPCELL_ROW_31_354
*3803 TAP_TAPCELL_ROW_31_355
*3804 TAP_TAPCELL_ROW_31_356
*3805 TAP_TAPCELL_ROW_31_357
*3806 TAP_TAPCELL_ROW_31_358
*3807 TAP_TAPCELL_ROW_31_359
*3808 TAP_TAPCELL_ROW_31_360
*3809 TAP_TAPCELL_ROW_32_361
*3810 TAP_TAPCELL_ROW_32_362
*3811 TAP_TAPCELL_ROW_32_363
*3812 TAP_TAPCELL_ROW_32_364
*3813 TAP_TAPCELL_ROW_32_365
*3814 TAP_TAPCELL_ROW_32_366
*3815 TAP_TAPCELL_ROW_32_367
*3816 TAP_TAPCELL_ROW_33_368
*3817 TAP_TAPCELL_ROW_33_369
*3818 TAP_TAPCELL_ROW_33_370
*3819 TAP_TAPCELL_ROW_33_371
*3820 TAP_TAPCELL_ROW_33_372
*3821 TAP_TAPCELL_ROW_33_373
*3822 TAP_TAPCELL_ROW_33_374
*3823 TAP_TAPCELL_ROW_34_375
*3824 TAP_TAPCELL_ROW_34_376
*3825 TAP_TAPCELL_ROW_34_377
*3826 TAP_TAPCELL_ROW_34_378
*3827 TAP_TAPCELL_ROW_34_379
*3828 TAP_TAPCELL_ROW_34_380
*3829 TAP_TAPCELL_ROW_34_381
*3830 TAP_TAPCELL_ROW_35_382
*3831 TAP_TAPCELL_ROW_35_383
*3832 TAP_TAPCELL_ROW_35_384
*3833 TAP_TAPCELL_ROW_35_385
*3834 TAP_TAPCELL_ROW_35_386
*3835 TAP_TAPCELL_ROW_35_387
*3836 TAP_TAPCELL_ROW_35_388
*3837 TAP_TAPCELL_ROW_36_389
*3838 TAP_TAPCELL_ROW_36_390
*3839 TAP_TAPCELL_ROW_36_391
*3840 TAP_TAPCELL_ROW_36_392
*3841 TAP_TAPCELL_ROW_36_393
*3842 TAP_TAPCELL_ROW_36_394
*3843 TAP_TAPCELL_ROW_36_395
*3844 TAP_TAPCELL_ROW_37_396
*3845 TAP_TAPCELL_ROW_37_397
*3846 TAP_TAPCELL_ROW_37_398
*3847 TAP_TAPCELL_ROW_37_399
*3848 TAP_TAPCELL_ROW_37_400
*3849 TAP_TAPCELL_ROW_37_401
*3850 TAP_TAPCELL_ROW_37_402
*3851 TAP_TAPCELL_ROW_38_403
*3852 TAP_TAPCELL_ROW_38_404
*3853 TAP_TAPCELL_ROW_38_405
*3854 TAP_TAPCELL_ROW_38_406
*3855 TAP_TAPCELL_ROW_38_407
*3856 TAP_TAPCELL_ROW_38_408
*3857 TAP_TAPCELL_ROW_38_409
*3858 TAP_TAPCELL_ROW_39_410
*3859 TAP_TAPCELL_ROW_39_411
*3860 TAP_TAPCELL_ROW_39_412
*3861 TAP_TAPCELL_ROW_39_413
*3862 TAP_TAPCELL_ROW_39_414
*3863 TAP_TAPCELL_ROW_39_415
*3864 TAP_TAPCELL_ROW_39_416
*3865 TAP_TAPCELL_ROW_3_158
*3866 TAP_TAPCELL_ROW_3_159
*3867 TAP_TAPCELL_ROW_3_160
*3868 TAP_TAPCELL_ROW_3_161
*3869 TAP_TAPCELL_ROW_3_162
*3870 TAP_TAPCELL_ROW_3_163
*3871 TAP_TAPCELL_ROW_3_164
*3872 TAP_TAPCELL_ROW_40_417
*3873 TAP_TAPCELL_ROW_40_418
*3874 TAP_TAPCELL_ROW_40_419
*3875 TAP_TAPCELL_ROW_40_420
*3876 TAP_TAPCELL_ROW_40_421
*3877 TAP_TAPCELL_ROW_40_422
*3878 TAP_TAPCELL_ROW_40_423
*3879 TAP_TAPCELL_ROW_41_424
*3880 TAP_TAPCELL_ROW_41_425
*3881 TAP_TAPCELL_ROW_41_426
*3882 TAP_TAPCELL_ROW_41_427
*3883 TAP_TAPCELL_ROW_41_428
*3884 TAP_TAPCELL_ROW_41_429
*3885 TAP_TAPCELL_ROW_41_430
*3886 TAP_TAPCELL_ROW_42_431
*3887 TAP_TAPCELL_ROW_42_432
*3888 TAP_TAPCELL_ROW_42_433
*3889 TAP_TAPCELL_ROW_42_434
*3890 TAP_TAPCELL_ROW_42_435
*3891 TAP_TAPCELL_ROW_42_436
*3892 TAP_TAPCELL_ROW_42_437
*3893 TAP_TAPCELL_ROW_43_438
*3894 TAP_TAPCELL_ROW_43_439
*3895 TAP_TAPCELL_ROW_43_440
*3896 TAP_TAPCELL_ROW_43_441
*3897 TAP_TAPCELL_ROW_43_442
*3898 TAP_TAPCELL_ROW_43_443
*3899 TAP_TAPCELL_ROW_43_444
*3900 TAP_TAPCELL_ROW_44_445
*3901 TAP_TAPCELL_ROW_44_446
*3902 TAP_TAPCELL_ROW_44_447
*3903 TAP_TAPCELL_ROW_44_448
*3904 TAP_TAPCELL_ROW_44_449
*3905 TAP_TAPCELL_ROW_44_450
*3906 TAP_TAPCELL_ROW_44_451
*3907 TAP_TAPCELL_ROW_45_452
*3908 TAP_TAPCELL_ROW_45_453
*3909 TAP_TAPCELL_ROW_45_454
*3910 TAP_TAPCELL_ROW_45_455
*3911 TAP_TAPCELL_ROW_45_456
*3912 TAP_TAPCELL_ROW_45_457
*3913 TAP_TAPCELL_ROW_45_458
*3914 TAP_TAPCELL_ROW_46_459
*3915 TAP_TAPCELL_ROW_46_460
*3916 TAP_TAPCELL_ROW_46_461
*3917 TAP_TAPCELL_ROW_46_462
*3918 TAP_TAPCELL_ROW_46_463
*3919 TAP_TAPCELL_ROW_46_464
*3920 TAP_TAPCELL_ROW_46_465
*3921 TAP_TAPCELL_ROW_47_466
*3922 TAP_TAPCELL_ROW_47_467
*3923 TAP_TAPCELL_ROW_47_468
*3924 TAP_TAPCELL_ROW_47_469
*3925 TAP_TAPCELL_ROW_47_470
*3926 TAP_TAPCELL_ROW_47_471
*3927 TAP_TAPCELL_ROW_47_472
*3928 TAP_TAPCELL_ROW_48_473
*3929 TAP_TAPCELL_ROW_48_474
*3930 TAP_TAPCELL_ROW_48_475
*3931 TAP_TAPCELL_ROW_48_476
*3932 TAP_TAPCELL_ROW_48_477
*3933 TAP_TAPCELL_ROW_48_478
*3934 TAP_TAPCELL_ROW_48_479
*3935 TAP_TAPCELL_ROW_49_480
*3936 TAP_TAPCELL_ROW_49_481
*3937 TAP_TAPCELL_ROW_49_482
*3938 TAP_TAPCELL_ROW_49_483
*3939 TAP_TAPCELL_ROW_49_484
*3940 TAP_TAPCELL_ROW_49_485
*3941 TAP_TAPCELL_ROW_49_486
*3942 TAP_TAPCELL_ROW_4_165
*3943 TAP_TAPCELL_ROW_4_166
*3944 TAP_TAPCELL_ROW_4_167
*3945 TAP_TAPCELL_ROW_4_168
*3946 TAP_TAPCELL_ROW_4_169
*3947 TAP_TAPCELL_ROW_4_170
*3948 TAP_TAPCELL_ROW_4_171
*3949 TAP_TAPCELL_ROW_50_487
*3950 TAP_TAPCELL_ROW_50_488
*3951 TAP_TAPCELL_ROW_50_489
*3952 TAP_TAPCELL_ROW_50_490
*3953 TAP_TAPCELL_ROW_50_491
*3954 TAP_TAPCELL_ROW_50_492
*3955 TAP_TAPCELL_ROW_50_493
*3956 TAP_TAPCELL_ROW_51_494
*3957 TAP_TAPCELL_ROW_51_495
*3958 TAP_TAPCELL_ROW_51_496
*3959 TAP_TAPCELL_ROW_51_497
*3960 TAP_TAPCELL_ROW_51_498
*3961 TAP_TAPCELL_ROW_51_499
*3962 TAP_TAPCELL_ROW_51_500
*3963 TAP_TAPCELL_ROW_52_501
*3964 TAP_TAPCELL_ROW_52_502
*3965 TAP_TAPCELL_ROW_52_503
*3966 TAP_TAPCELL_ROW_52_504
*3967 TAP_TAPCELL_ROW_52_505
*3968 TAP_TAPCELL_ROW_52_506
*3969 TAP_TAPCELL_ROW_52_507
*3970 TAP_TAPCELL_ROW_53_508
*3971 TAP_TAPCELL_ROW_53_509
*3972 TAP_TAPCELL_ROW_53_510
*3973 TAP_TAPCELL_ROW_53_511
*3974 TAP_TAPCELL_ROW_53_512
*3975 TAP_TAPCELL_ROW_53_513
*3976 TAP_TAPCELL_ROW_53_514
*3977 TAP_TAPCELL_ROW_54_515
*3978 TAP_TAPCELL_ROW_54_516
*3979 TAP_TAPCELL_ROW_54_517
*3980 TAP_TAPCELL_ROW_54_518
*3981 TAP_TAPCELL_ROW_54_519
*3982 TAP_TAPCELL_ROW_54_520
*3983 TAP_TAPCELL_ROW_54_521
*3984 TAP_TAPCELL_ROW_55_522
*3985 TAP_TAPCELL_ROW_55_523
*3986 TAP_TAPCELL_ROW_55_524
*3987 TAP_TAPCELL_ROW_55_525
*3988 TAP_TAPCELL_ROW_55_526
*3989 TAP_TAPCELL_ROW_55_527
*3990 TAP_TAPCELL_ROW_55_528
*3991 TAP_TAPCELL_ROW_56_529
*3992 TAP_TAPCELL_ROW_56_530
*3993 TAP_TAPCELL_ROW_56_531
*3994 TAP_TAPCELL_ROW_56_532
*3995 TAP_TAPCELL_ROW_56_533
*3996 TAP_TAPCELL_ROW_56_534
*3997 TAP_TAPCELL_ROW_56_535
*3998 TAP_TAPCELL_ROW_57_536
*3999 TAP_TAPCELL_ROW_57_537
*4000 TAP_TAPCELL_ROW_57_538
*4001 TAP_TAPCELL_ROW_57_539
*4002 TAP_TAPCELL_ROW_57_540
*4003 TAP_TAPCELL_ROW_57_541
*4004 TAP_TAPCELL_ROW_57_542
*4005 TAP_TAPCELL_ROW_58_543
*4006 TAP_TAPCELL_ROW_58_544
*4007 TAP_TAPCELL_ROW_58_545
*4008 TAP_TAPCELL_ROW_58_546
*4009 TAP_TAPCELL_ROW_58_547
*4010 TAP_TAPCELL_ROW_58_548
*4011 TAP_TAPCELL_ROW_58_549
*4012 TAP_TAPCELL_ROW_59_550
*4013 TAP_TAPCELL_ROW_59_551
*4014 TAP_TAPCELL_ROW_59_552
*4015 TAP_TAPCELL_ROW_59_553
*4016 TAP_TAPCELL_ROW_59_554
*4017 TAP_TAPCELL_ROW_59_555
*4018 TAP_TAPCELL_ROW_59_556
*4019 TAP_TAPCELL_ROW_5_172
*4020 TAP_TAPCELL_ROW_5_173
*4021 TAP_TAPCELL_ROW_5_174
*4022 TAP_TAPCELL_ROW_5_175
*4023 TAP_TAPCELL_ROW_5_176
*4024 TAP_TAPCELL_ROW_5_177
*4025 TAP_TAPCELL_ROW_5_178
*4026 TAP_TAPCELL_ROW_60_557
*4027 TAP_TAPCELL_ROW_60_558
*4028 TAP_TAPCELL_ROW_60_559
*4029 TAP_TAPCELL_ROW_60_560
*4030 TAP_TAPCELL_ROW_60_561
*4031 TAP_TAPCELL_ROW_60_562
*4032 TAP_TAPCELL_ROW_60_563
*4033 TAP_TAPCELL_ROW_61_564
*4034 TAP_TAPCELL_ROW_61_565
*4035 TAP_TAPCELL_ROW_61_566
*4036 TAP_TAPCELL_ROW_61_567
*4037 TAP_TAPCELL_ROW_61_568
*4038 TAP_TAPCELL_ROW_61_569
*4039 TAP_TAPCELL_ROW_61_570
*4040 TAP_TAPCELL_ROW_62_571
*4041 TAP_TAPCELL_ROW_62_572
*4042 TAP_TAPCELL_ROW_62_573
*4043 TAP_TAPCELL_ROW_62_574
*4044 TAP_TAPCELL_ROW_62_575
*4045 TAP_TAPCELL_ROW_62_576
*4046 TAP_TAPCELL_ROW_62_577
*4047 TAP_TAPCELL_ROW_63_578
*4048 TAP_TAPCELL_ROW_63_579
*4049 TAP_TAPCELL_ROW_63_580
*4050 TAP_TAPCELL_ROW_63_581
*4051 TAP_TAPCELL_ROW_63_582
*4052 TAP_TAPCELL_ROW_63_583
*4053 TAP_TAPCELL_ROW_63_584
*4054 TAP_TAPCELL_ROW_64_585
*4055 TAP_TAPCELL_ROW_64_586
*4056 TAP_TAPCELL_ROW_64_587
*4057 TAP_TAPCELL_ROW_64_588
*4058 TAP_TAPCELL_ROW_64_589
*4059 TAP_TAPCELL_ROW_64_590
*4060 TAP_TAPCELL_ROW_64_591
*4061 TAP_TAPCELL_ROW_64_592
*4062 TAP_TAPCELL_ROW_64_593
*4063 TAP_TAPCELL_ROW_64_594
*4064 TAP_TAPCELL_ROW_64_595
*4065 TAP_TAPCELL_ROW_64_596
*4066 TAP_TAPCELL_ROW_64_597
*4067 TAP_TAPCELL_ROW_64_598
*4068 TAP_TAPCELL_ROW_6_179
*4069 TAP_TAPCELL_ROW_6_180
*4070 TAP_TAPCELL_ROW_6_181
*4071 TAP_TAPCELL_ROW_6_182
*4072 TAP_TAPCELL_ROW_6_183
*4073 TAP_TAPCELL_ROW_6_184
*4074 TAP_TAPCELL_ROW_6_185
*4075 TAP_TAPCELL_ROW_7_186
*4076 TAP_TAPCELL_ROW_7_187
*4077 TAP_TAPCELL_ROW_7_188
*4078 TAP_TAPCELL_ROW_7_189
*4079 TAP_TAPCELL_ROW_7_190
*4080 TAP_TAPCELL_ROW_7_191
*4081 TAP_TAPCELL_ROW_7_192
*4082 TAP_TAPCELL_ROW_8_193
*4083 TAP_TAPCELL_ROW_8_194
*4084 TAP_TAPCELL_ROW_8_195
*4085 TAP_TAPCELL_ROW_8_196
*4086 TAP_TAPCELL_ROW_8_197
*4087 TAP_TAPCELL_ROW_8_198
*4088 TAP_TAPCELL_ROW_8_199
*4089 TAP_TAPCELL_ROW_9_200
*4090 TAP_TAPCELL_ROW_9_201
*4091 TAP_TAPCELL_ROW_9_202
*4092 TAP_TAPCELL_ROW_9_203
*4093 TAP_TAPCELL_ROW_9_204
*4094 TAP_TAPCELL_ROW_9_205
*4095 TAP_TAPCELL_ROW_9_206
*4096 _243_
*4097 _244_
*4098 _245_
*4099 _246_
*4100 _247_
*4101 _248_
*4102 _249_
*4103 _250_
*4104 _251_
*4105 _252_
*4106 _253_
*4107 _254_
*4108 _255_
*4109 _256_
*4110 _257_
*4111 _258_
*4112 _259_
*4113 _260_
*4114 _261_
*4115 _262_
*4116 _263_
*4117 _264_
*4118 _265_
*4119 _266_
*4120 _267_
*4121 _268_
*4122 _269_
*4123 _270_
*4124 _271_
*4125 _272_
*4126 _273_
*4127 _274_
*4128 _275_
*4129 _276_
*4130 _277_
*4131 _278_
*4132 _279_
*4133 _280_
*4134 _281_
*4135 _282_
*4136 _283_
*4137 _284_
*4138 _285_
*4139 _286_
*4140 _287_
*4141 _288_
*4142 _289_
*4143 _290_
*4144 _291_
*4145 _292_
*4146 _293_
*4147 _294_
*4148 _295_
*4149 _296_
*4150 _297_
*4151 _298_
*4152 _299_
*4153 _300_
*4154 _301_
*4155 _302_
*4156 _303_
*4157 _304_
*4158 _305_
*4159 _306_
*4160 _307_
*4161 _308_
*4162 _309_
*4163 _310_
*4164 _311_
*4165 _312_
*4166 _313_
*4167 _314_
*4168 _315_
*4169 _316_
*4170 _317_
*4171 _318_
*4172 _319_
*4173 _320_
*4174 _321_
*4175 _322_
*4176 _323_
*4177 _324_
*4178 _325_
*4179 _326_
*4180 _327_
*4181 _328_
*4182 _329_
*4183 _330_
*4184 _331_
*4185 _332_
*4186 _333_
*4187 _334_
*4188 _335_
*4189 _336_
*4190 _337_
*4191 _338_
*4192 _339_
*4193 _340_
*4194 _341_
*4195 _342_
*4196 _343_
*4197 _344_
*4198 _345_
*4199 _346_
*4200 _347_
*4201 _348_
*4202 _349_
*4203 _350_
*4204 _351_
*4205 _352_
*4206 _353_
*4207 _354_
*4208 _355_
*4209 _356_
*4210 _357_
*4211 _358_
*4212 _359_
*4213 _360_
*4214 _361_
*4215 _362_
*4216 _363_
*4217 _364_
*4218 _365_
*4219 _366_
*4220 _367_
*4221 _368_
*4222 _369_
*4223 _370_
*4224 _371_
*4225 _372_
*4226 _373_
*4227 _374_
*4228 _375_
*4229 _376_
*4230 _377_
*4231 _378_
*4232 _379_
*4233 _380_
*4234 _381_
*4235 _382_
*4236 _383_
*4237 _384_
*4238 _385_
*4239 _386_
*4240 _387_
*4241 _388_
*4242 _389_
*4243 _390_
*4244 _391_
*4245 _392_
*4246 _393_
*4247 _394_
*4248 _395_
*4249 _396_
*4250 _397_
*4251 _398_
*4252 _399_
*4253 _400_
*4254 _401_
*4255 _402_
*4256 _403_
*4257 _404_
*4258 _405_
*4259 _406_
*4260 _407_
*4261 _408_
*4262 _409_
*4263 _410_
*4264 _411_
*4265 _412_
*4266 _413_
*4267 _414_
*4268 _415_
*4269 _416_
*4270 _417_
*4271 _418_
*4272 _419_
*4273 _420_
*4274 _421_
*4275 _422_
*4276 _423_
*4277 _424_
*4278 _425_
*4279 _426_
*4280 _427_
*4281 _428_
*4282 _429_
*4283 _430_
*4284 _431_
*4285 _432_
*4286 _433_
*4287 _434_
*4288 _435_
*4289 _436_
*4290 _437_
*4291 _438_
*4292 _439_
*4293 _440_
*4294 _441_
*4295 _442_
*4296 _443_
*4297 _444_
*4298 _445_
*4299 _446_
*4300 _447_
*4301 _448_
*4302 _449_
*4303 _450_
*4304 _451_
*4305 _452_
*4306 _453_
*4307 _454_
*4308 _455_
*4309 _456_
*4310 _457_
*4311 _458_
*4312 _459_
*4313 _460_
*4314 _461_
*4315 _462_
*4316 _463_
*4317 _464_
*4318 _465_
*4319 _466_
*4320 _467_
*4321 _468_
*4322 _469_
*4323 _470_
*4324 _471_
*4325 _472_
*4326 _473_
*4327 _474_
*4328 _475_
*4329 _476_
*4330 _477_
*4331 _478_
*4332 _479_
*4333 _480_
*4334 _481_
*4335 _482_
*4336 _483_
*4337 _484_
*4338 _485_
*4339 _486_
*4340 _487_
*4341 _488_
*4342 _489_
*4343 _490_
*4344 _491_
*4345 _492_
*4346 _493_
*4347 _494_
*4348 _495_
*4349 _496_
*4350 _497_
*4351 _498_
*4352 _499_
*4353 _500_
*4354 _501_
*4355 _502_
*4356 _503_
*4357 _504_
*4358 _505_
*4359 _506_
*4360 _507_
*4361 _508_
*4362 _509_
*4363 _510_
*4364 _511_
*4365 _512_
*4366 _513_
*4367 _514_
*4368 _515_
*4369 _516_
*4370 _517_
*4371 _518_
*4372 _519_
*4373 _520_
*4374 _521_
*4375 _522_
*4376 _523_
*4377 _524_
*4378 _525_
*4379 _526_
*4380 _527_
*4381 _528_
*4382 _529_
*4383 _530_
*4384 _531_
*4385 _532_
*4386 _533_
*4387 _534_
*4388 _535_
*4389 _536_
*4390 _537_
*4391 _538_
*4392 _539_
*4393 _540_
*4394 _541_
*4395 _542_
*4396 _543_
*4397 _544_
*4398 _545_
*4399 _546_
*4400 _547_
*4401 _548_
*4402 _549_
*4403 _550_
*4404 _551_
*4405 _552_
*4406 _553_
*4407 _554_
*4408 _555_
*4409 _556_
*4410 _557_
*4411 _558_
*4412 _559_
*4413 _560_
*4414 _561_
*4415 _562_
*4416 _563_
*4417 _564_
*4418 _565_
*4419 clkbuf_0_clk
*4420 clkbuf_3_0__f_clk
*4421 clkbuf_3_1__f_clk
*4422 clkbuf_3_2__f_clk
*4423 clkbuf_3_3__f_clk
*4424 clkbuf_3_4__f_clk
*4425 clkbuf_3_5__f_clk
*4426 clkbuf_3_6__f_clk
*4427 clkbuf_3_7__f_clk
*4428 clkload0
*4429 clkload1
*4430 clkload2
*4431 clkload3
*4432 clkload4
*4433 clkload5
*4434 clkload6
*4435 fanout12
*4436 fanout13
*4437 hold1
*4438 hold10
*4439 hold100
*4440 hold101
*4441 hold102
*4442 hold103
*4443 hold104
*4444 hold105
*4445 hold106
*4446 hold107
*4447 hold108
*4448 hold109
*4449 hold11
*4450 hold110
*4451 hold111
*4452 hold112
*4453 hold113
*4454 hold114
*4455 hold115
*4456 hold116
*4457 hold117
*4458 hold118
*4459 hold119
*4460 hold12
*4461 hold120
*4462 hold121
*4463 hold122
*4464 hold123
*4465 hold124
*4466 hold125
*4467 hold126
*4468 hold127
*4469 hold128
*4470 hold129
*4471 hold13
*4472 hold130
*4473 hold131
*4474 hold132
*4475 hold133
*4476 hold134
*4477 hold135
*4478 hold136
*4479 hold137
*4480 hold138
*4481 hold139
*4482 hold14
*4483 hold140
*4484 hold141
*4485 hold142
*4486 hold143
*4487 hold144
*4488 hold145
*4489 hold146
*4490 hold147
*4491 hold148
*4492 hold149
*4493 hold15
*4494 hold150
*4495 hold151
*4496 hold152
*4497 hold153
*4498 hold154
*4499 hold155
*4500 hold156
*4501 hold157
*4502 hold158
*4503 hold159
*4504 hold16
*4505 hold160
*4506 hold161
*4507 hold162
*4508 hold163
*4509 hold164
*4510 hold165
*4511 hold166
*4512 hold167
*4513 hold168
*4514 hold169
*4515 hold17
*4516 hold170
*4517 hold18
*4518 hold19
*4519 hold2
*4520 hold20
*4521 hold21
*4522 hold22
*4523 hold23
*4524 hold24
*4525 hold25
*4526 hold26
*4527 hold27
*4528 hold28
*4529 hold29
*4530 hold3
*4531 hold30
*4532 hold31
*4533 hold32
*4534 hold33
*4535 hold34
*4536 hold35
*4537 hold36
*4538 hold37
*4539 hold38
*4540 hold39
*4541 hold4
*4542 hold40
*4543 hold41
*4544 hold42
*4545 hold43
*4546 hold44
*4547 hold45
*4548 hold46
*4549 hold47
*4550 hold48
*4551 hold49
*4552 hold5
*4553 hold50
*4554 hold51
*4555 hold52
*4556 hold53
*4557 hold54
*4558 hold55
*4559 hold56
*4560 hold57
*4561 hold58
*4562 hold59
*4563 hold6
*4564 hold60
*4565 hold61
*4566 hold62
*4567 hold63
*4568 hold64
*4569 hold65
*4570 hold66
*4571 hold67
*4572 hold68
*4573 hold69
*4574 hold7
*4575 hold70
*4576 hold71
*4577 hold72
*4578 hold73
*4579 hold74
*4580 hold75
*4581 hold76
*4582 hold77
*4583 hold78
*4584 hold79
*4585 hold8
*4586 hold80
*4587 hold81
*4588 hold82
*4589 hold83
*4590 hold84
*4591 hold85
*4592 hold86
*4593 hold87
*4594 hold88
*4595 hold89
*4596 hold9
*4597 hold90
*4598 hold91
*4599 hold92
*4600 hold93
*4601 hold94
*4602 hold95
*4603 hold96
*4604 hold97
*4605 hold98
*4606 hold99
*4607 input1
*4608 input2
*4609 output10
*4610 output11
*4611 output3
*4612 output4
*4613 output5
*4614 output6
*4615 output7
*4616 output8
*4617 output9

*PORTS
clk I
led[0] O
led[1] O
led[2] O
led[3] O
led[4] O
led[5] O
led[6] O
led[7] O
sw_0 I
sw_1 I
uart_rxd I
uart_txd O

*D_NET *3 0.0185095
*CONN
*P clk I
*I *4419:A I *D sky130_fd_sc_hd__clkbuf_16
*I *562:DIODE I *D sky130_fd_sc_hd__diode_2
*CAP
1 clk 0.00183392
2 *4419:A 4.31419e-05
3 *562:DIODE 0
4 *3:19 0.0074111
5 *3:11 0.00920188
6 *3:19 *133:10 1.94945e-05
*RES
1 clk *3:11 37.8661 
2 *3:11 *3:19 27.7639 
3 *3:19 *562:DIODE 9.3 
4 *3:19 *4419:A 9.83571 
*END

*D_NET *4 0.00131051
*CONN
*P led[0] O
*I *4611:X O *D sky130_fd_sc_hd__buf_2
*CAP
1 led[0] 0.000432577
2 *4611:X 0.000432577
3 led[0] led[2] 0.000100663
4 led[0] led[4] 0.000115369
5 led[0] *4154:A1 0.000187729
6 led[0] *445:8 4.15914e-05
*RES
1 *4611:X led[0] 24.3384 
*END

*D_NET *5 0.0020797
*CONN
*P led[1] O
*I *4612:X O *D sky130_fd_sc_hd__buf_2
*CAP
1 led[1] 0.00066704
2 *4612:X 0.00066704
3 led[1] uart_txd 0
4 led[1] *4159:A 0.000406652
5 led[1] *4612:A 0.000191629
6 led[1] *265:130 0.00014734
*RES
1 *4612:X led[1] 27.9092 
*END

*D_NET *6 0.00103911
*CONN
*P led[2] O
*I *4613:X O *D sky130_fd_sc_hd__buf_2
*CAP
1 led[2] 0.000363915
2 *4613:X 0.000363915
3 led[2] led[4] 0.000206486
4 led[2] led[5] 0
5 led[2] *4348:D 4.1331e-06
6 led[2] *4541:A 0
7 led[2] *4615:A 0
8 led[0] led[2] 0.000100663
*RES
1 *4613:X led[2] 21.0712 
*END

*D_NET *7 0.00496735
*CONN
*P led[3] O
*I *4614:X O *D sky130_fd_sc_hd__buf_2
*CAP
1 led[3] 0.00150897
2 *4614:X 0.00150897
3 led[3] led[5] 0.000183781
4 led[3] *4160:A1 0.000374286
5 led[3] *4176:A0 8.67797e-05
6 led[3] *4176:S 0
7 led[3] *4179:A1 0.000200395
8 led[3] *4346:D 9.91086e-05
9 led[3] *4348:CLK 0
10 led[3] *4578:A 1.97253e-05
11 led[3] *4599:A 0.000140481
12 led[3] *4614:A 0.000308595
13 led[3] *134:111 8.18868e-05
14 led[3] *153:34 3.8725e-05
15 led[3] *153:55 1.73261e-05
16 led[3] *339:18 0
17 led[3] *346:10 0.000398324
*RES
1 *4614:X led[3] 39.0942 
*END

*D_NET *8 0.00160883
*CONN
*P led[4] O
*I *4615:X O *D sky130_fd_sc_hd__buf_2
*CAP
1 led[4] 0.000527172
2 *4615:X 0.000527172
3 led[4] led[5] 8.97528e-05
4 led[4] *4154:A1 0
5 led[4] *4348:D 0
6 led[4] *134:93 0.000122258
7 led[4] *134:95 2.06178e-05
8 led[0] led[4] 0.000115369
9 led[2] led[4] 0.000206486
*RES
1 *4615:X led[4] 25.4806 
*END

*D_NET *9 0.00299837
*CONN
*P led[5] O
*I *4616:X O *D sky130_fd_sc_hd__buf_2
*CAP
1 led[5] 0.00126804
2 *4616:X 0.00126804
3 led[5] *4160:A1 0
4 led[5] *4161:A1 5.94433e-06
5 led[5] *4347:CLK 5.20751e-05
6 led[5] *4347:D 4.87669e-06
7 led[5] *4348:D 0
8 led[5] *4446:A 5.30637e-06
9 led[5] *4616:A 0.000104761
10 led[5] *489:8 1.57885e-05
11 led[2] led[5] 0
12 led[3] led[5] 0.000183781
13 led[4] led[5] 8.97528e-05
*RES
1 *4616:X led[5] 28.4169 
*END

*D_NET *10 0.00114454
*CONN
*P led[6] O
*I *4617:X O *D sky130_fd_sc_hd__buf_2
*CAP
1 led[6] 0.000572268
2 *4617:X 0.000572268
3 led[6] *511:19 0
*RES
1 *4617:X led[6] 24.3714 
*END

*D_NET *11 0.000880645
*CONN
*P led[7] O
*I *4609:X O *D sky130_fd_sc_hd__buf_2
*CAP
1 led[7] 0.000440323
2 *4609:X 0.000440323
*RES
1 *4609:X led[7] 21.6393 
*END

*D_NET *12 0.00443687
*CONN
*P sw_0 I
*I *574:DIODE I *D sky130_fd_sc_hd__diode_2
*I *4607:A I *D sky130_fd_sc_hd__clkbuf_1
*CAP
1 sw_0 0.000864759
2 *574:DIODE 0.000373648
3 *4607:A 0.000101175
4 *12:9 0.00133958
5 *574:DIODE *4125:A 0
6 *574:DIODE *4295:A 0.000163979
7 *574:DIODE *4298:A 0.000504606
8 *574:DIODE *4451:A 0
9 *574:DIODE *4452:A 0.000128154
10 *574:DIODE *4456:A 4.48113e-05
11 *574:DIODE *4513:A 7.30305e-05
12 *574:DIODE *134:127 0
13 *4607:A *4298:B 0.000179628
14 *12:9 uart_txd 0.00040879
15 *12:9 *4339:D 0
16 *12:9 *4344:D 6.5919e-05
17 *12:9 *4451:A 0
18 *12:9 *339:18 0.000188787
*RES
1 sw_0 *12:9 11.0276 
2 *12:9 *4607:A 15.9964 
3 *12:9 *574:DIODE 23.8714 
*END

*D_NET *14 0.000856284
*CONN
*P uart_rxd I
*I *575:DIODE I *D sky130_fd_sc_hd__diode_2
*I *4608:A I *D sky130_fd_sc_hd__buf_1
*CAP
1 uart_rxd 0.000332515
2 *575:DIODE 8.16726e-05
3 *4608:A 0
4 *14:13 0.000414188
5 *14:13 *434:14 2.79092e-05
*RES
1 uart_rxd *14:13 11.4115 
2 *14:13 *4608:A 9.3 
3 *14:13 *575:DIODE 10.6571 
*END

*D_NET *15 0.00284321
*CONN
*P uart_txd O
*I *4610:X O *D sky130_fd_sc_hd__buf_2
*CAP
1 uart_txd 0.000860446
2 *4610:X 0.000860446
3 uart_txd *572:DIODE 0.000153658
4 uart_txd *4156:C1 0
5 uart_txd *4339:D 0
6 uart_txd *4344:D 0.000127308
7 uart_txd *4418:D 3.30526e-05
8 uart_txd *4584:A 0.000346177
9 uart_txd *351:8 5.33334e-05
10 led[1] uart_txd 0
11 *12:9 uart_txd 0.00040879
*RES
1 *4610:X uart_txd 27.2377 
*END

*D_NET *16 0.000149128
*CONN
*I *4522:A I *D sky130_fd_sc_hd__dlygate4sd3_1
*I *4124:X O *D sky130_fd_sc_hd__a221o_1
*CAP
1 *4522:A 3.00565e-05
2 *4124:X 3.00565e-05
3 *4522:A *4536:A 5.71472e-05
4 *4522:A *100:338 3.18676e-05
*RES
1 *4124:X *4522:A 19.5643 
*END

*D_NET *17 0.000206421
*CONN
*I *4395:D I *D sky130_fd_sc_hd__dfxtp_2
*I *4143:X O *D sky130_fd_sc_hd__a31o_1
*CAP
1 *4395:D 8.39435e-05
2 *4143:X 8.39435e-05
3 *4395:D *151:10 0
4 *4395:D *263:65 2.8266e-06
5 *4395:D *263:78 3.5707e-05
*RES
1 *4143:X *4395:D 29.1045 
*END

*D_NET *18 0.000553874
*CONN
*I *4396:D I *D sky130_fd_sc_hd__dfxtp_2
*I *4145:X O *D sky130_fd_sc_hd__a22o_1
*CAP
1 *4396:D 0.00019746
2 *4145:X 0.00019746
3 *4396:D *4152:B1 5.56943e-05
4 *4396:D *290:29 0.00010326
*RES
1 *4145:X *4396:D 30.9795 
*END

*D_NET *19 0.000831468
*CONN
*I *4397:D I *D sky130_fd_sc_hd__dfxtp_4
*I *4152:X O *D sky130_fd_sc_hd__a32o_1
*CAP
1 *4397:D 0.000256684
2 *4152:X 0.000256684
3 *4397:D *4152:A1 0
4 *4397:D *4397:CLK 0.000318101
5 *4397:D *263:78 0
6 *4397:D *290:8 0
*RES
1 *4152:X *4397:D 32.85 
*END

*D_NET *20 0.000723874
*CONN
*I *4452:A I *D sky130_fd_sc_hd__dlygate4sd3_1
*I *4139:X O *D sky130_fd_sc_hd__a221o_1
*CAP
1 *4452:A 0.000289216
2 *4139:X 0.000289216
3 *4452:A *528:DIODE 1.72894e-05
4 *4452:A *134:127 0
5 *574:DIODE *4452:A 0.000128154
*RES
1 *4139:X *4452:A 31.8321 
*END

*D_NET *21 0.000523204
*CONN
*I *4508:A I *D sky130_fd_sc_hd__dlygate4sd3_1
*I *4132:X O *D sky130_fd_sc_hd__a31o_1
*CAP
1 *4508:A 0.00010159
2 *4132:X 0.00010159
3 *4508:A *394:30 0.000320024
*RES
1 *4132:X *4508:A 21.6 
*END

*D_NET *22 0.000116121
*CONN
*I *4479:A I *D sky130_fd_sc_hd__dlygate4sd3_1
*I *4151:X O *D sky130_fd_sc_hd__a22o_1
*CAP
1 *4479:A 4.74175e-05
2 *4151:X 4.74175e-05
3 *4479:A *4151:A2 3.99614e-06
4 *4479:A *4151:B2 1.72894e-05
*RES
1 *4151:X *4479:A 19.5643 
*END

*D_NET *23 0.000568647
*CONN
*I *4458:A I *D sky130_fd_sc_hd__dlygate4sd3_1
*I *4147:X O *D sky130_fd_sc_hd__a31o_1
*CAP
1 *4458:A 0.000173145
2 *4147:X 0.000173145
3 *4458:A *4285:C1 9.64007e-05
4 *4458:A *225:10 0.000102932
5 *4458:A *362:47 2.30245e-05
*RES
1 *4147:X *4458:A 31.0107 
*END

*D_NET *24 0.00168872
*CONN
*I *4585:A I *D sky130_fd_sc_hd__dlygate4sd3_1
*I *4154:X O *D sky130_fd_sc_hd__o21ba_1
*CAP
1 *4585:A 0.000582943
2 *4154:X 0.000582943
3 *4585:A *4154:A1 0
4 *4585:A *4343:D 8.16036e-05
5 *4585:A *4345:D 0
6 *4585:A *4566:A 0
7 *4585:A *4615:A 0.00034321
8 *4585:A *133:166 9.80173e-05
*RES
1 *4154:X *4585:A 39.2429 
*END

*D_NET *25 0.000764078
*CONN
*I *4586:A I *D sky130_fd_sc_hd__dlygate4sd3_1
*I *4156:X O *D sky130_fd_sc_hd__o211a_1
*CAP
1 *4586:A 8.79465e-05
2 *4156:X 8.79465e-05
3 *4586:A *4156:A1 0.000353079
4 *4586:A *4156:A2 7.02611e-05
5 *4586:A *4451:A 9.60875e-05
6 *4586:A *134:125 6.87574e-05
*RES
1 *4156:X *4586:A 22.0107 
*END

*D_NET *26 0.000473526
*CONN
*I *4565:A I *D sky130_fd_sc_hd__dlygate4sd3_1
*I *4158:X O *D sky130_fd_sc_hd__o211a_1
*CAP
1 *4565:A 0.000233737
2 *4158:X 0.000233737
3 *4565:A *539:DIODE 6.05161e-06
4 *4565:A *4615:A 0
5 *4565:A *495:12 0
*RES
1 *4158:X *4565:A 31.4214 
*END

*D_NET *27 0.000855514
*CONN
*I *4569:A I *D sky130_fd_sc_hd__dlygate4sd3_1
*I *4160:X O *D sky130_fd_sc_hd__o211a_1
*CAP
1 *4569:A 0.000190895
2 *4160:X 0.000190895
3 *4569:A *4346:D 8.00806e-05
4 *4569:A *133:114 0.00030926
5 *4569:A *339:18 6.65398e-05
6 *4569:A *373:12 1.78447e-05
*RES
1 *4160:X *4569:A 32.2429 
*END

*D_NET *28 0.0017229
*CONN
*I *4563:A I *D sky130_fd_sc_hd__dlygate4sd3_1
*I *4162:X O *D sky130_fd_sc_hd__a21o_1
*CAP
1 *4563:A 0.000398365
2 *4162:X 0.000398365
3 *4563:A *4162:B1 0.000173921
4 *4563:A *4164:B1 0
5 *4563:A *4348:CLK 0.000181796
6 *4563:A *4348:D 0
7 *4563:A *4578:A 0.000463853
8 *4563:A *100:245 5.33005e-05
9 *4563:A *100:263 5.33005e-05
*RES
1 *4162:X *4563:A 35.9571 
*END

*D_NET *29 0.000893642
*CONN
*I *4541:A I *D sky130_fd_sc_hd__dlygate4sd3_1
*I *4164:X O *D sky130_fd_sc_hd__a21o_1
*CAP
1 *4541:A 0.000176091
2 *4164:X 0.000176091
3 *4541:A *4162:A1 1.92905e-05
4 *4541:A *4164:A1 0.000274035
5 *4541:A *4348:D 1.18064e-05
6 *4541:A *4613:A 0.00018372
7 *4541:A *4615:A 5.26091e-05
8 led[2] *4541:A 0
*RES
1 *4164:X *4541:A 32.6714 
*END

*D_NET *30 0.000206275
*CONN
*I *4438:A I *D sky130_fd_sc_hd__dlygate4sd3_1
*I *4166:X O *D sky130_fd_sc_hd__a21o_1
*CAP
1 *4438:A 6.82389e-05
2 *4166:X 6.82389e-05
3 *4438:A *4349:D 0
4 *4438:A *511:10 6.97972e-05
*RES
1 *4166:X *4438:A 29.2429 
*END

*D_NET *31 0.000420525
*CONN
*I *4504:A I *D sky130_fd_sc_hd__dlygate4sd3_1
*I *4168:X O *D sky130_fd_sc_hd__a21o_1
*CAP
1 *4504:A 0.000169465
2 *4168:X 0.000169465
3 *4504:A *4350:D 0
4 *4504:A *4493:A 8.15939e-05
*RES
1 *4168:X *4504:A 30.9036 
*END

*D_NET *32 0.000737229
*CONN
*I *4447:A I *D sky130_fd_sc_hd__dlygate4sd3_1
*I *4172:X O *D sky130_fd_sc_hd__o211a_1
*CAP
1 *4447:A 6.6374e-05
2 *4172:X 6.6374e-05
3 *4447:A *4172:A1 0.000226507
4 *4447:A *362:94 0.00030926
5 *4447:A *373:48 6.87146e-05
*RES
1 *4172:X *4447:A 21.6 
*END

*D_NET *33 0.000184681
*CONN
*I *4602:A I *D sky130_fd_sc_hd__dlygate4sd3_1
*I *4175:X O *D sky130_fd_sc_hd__o211a_1
*CAP
1 *4602:A 2.58925e-05
2 *4175:X 2.58925e-05
3 *4602:A *4583:A 3.4879e-05
4 *4602:A *362:35 9.80173e-05
*RES
1 *4175:X *4602:A 19.5464 
*END

*D_NET *34 0.00250857
*CONN
*I *4578:A I *D sky130_fd_sc_hd__dlygate4sd3_1
*I *4178:X O *D sky130_fd_sc_hd__o211a_1
*CAP
1 *4578:A 0.000609795
2 *4178:X 0.000609795
3 *4578:A *4162:B1 0.000268403
4 *4578:A *4164:B1 0
5 *4578:A *4177:A 5.01883e-05
6 *4578:A *4177:B 3.42426e-05
7 *4578:A *4347:D 5.65955e-05
8 *4578:A *4348:CLK 7.04737e-05
9 *4578:A *4353:D 7.43578e-06
10 *4578:A *4577:A 4.72331e-05
11 *4578:A *100:263 4.43256e-05
12 *4578:A *500:10 0.000226507
13 led[3] *4578:A 1.97253e-05
14 *4563:A *4578:A 0.000463853
*RES
1 *4178:X *4578:A 41.6893 
*END

*D_NET *35 0.000909828
*CONN
*I *4573:A I *D sky130_fd_sc_hd__dlygate4sd3_1
*I *4181:X O *D sky130_fd_sc_hd__o211a_1
*CAP
1 *4573:A 0.000191426
2 *4181:X 0.000191426
3 *4573:A *551:DIODE 2.27416e-05
4 *4573:A *4177:A 0.000266051
5 *4573:A *4178:A1 1.34548e-05
6 *4573:A *4178:B1 9.82947e-05
7 *4573:A *4178:C1 0.000126433
8 *4573:A *259:64 0
*RES
1 *4181:X *4573:A 32.5464 
*END

*D_NET *36 0.00112079
*CONN
*I *4556:A I *D sky130_fd_sc_hd__dlygate4sd3_1
*I *4184:X O *D sky130_fd_sc_hd__o211a_1
*CAP
1 *4556:A 0.000356572
2 *4184:X 0.000356572
3 *4556:A *4184:A1 0.00040765
4 *4556:A *4200:B 0
5 *4556:A *4201:A1 0
*RES
1 *4184:X *4556:A 33.0643 
*END

*D_NET *37 0.000416165
*CONN
*I *4580:A I *D sky130_fd_sc_hd__dlygate4sd3_1
*I *4187:X O *D sky130_fd_sc_hd__o211a_1
*CAP
1 *4580:A 0.000138901
2 *4187:X 0.000138901
3 *4580:A *4187:A1 4.57445e-05
4 *4580:A *133:42 3.92757e-05
5 *4580:A *266:46 5.33433e-05
*RES
1 *4187:X *4580:A 30.6 
*END

*D_NET *38 0.000104357
*CONN
*I *4445:A I *D sky130_fd_sc_hd__dlygate4sd3_1
*I *4191:X O *D sky130_fd_sc_hd__a31o_1
*CAP
1 *4445:A 7.67105e-06
2 *4191:X 7.67105e-06
3 *4445:A *4189:B1 5.71472e-05
4 *4445:A *4191:B1 3.18676e-05
*RES
1 *4191:X *4445:A 19.1357 
*END

*D_NET *39 0.00076814
*CONN
*I *4460:A I *D sky130_fd_sc_hd__dlygate4sd3_1
*I *4193:X O *D sky130_fd_sc_hd__o211a_1
*CAP
1 *4460:A 0.000323152
2 *4193:X 0.000323152
3 *4460:A *4193:A1 5.76121e-05
4 *4460:A *4195:A2 0
5 *4460:A *4210:A 0
6 *4460:A *4358:D 0
7 *4460:A *4449:A 6.42242e-05
*RES
1 *4193:X *4460:A 33.0286 
*END

*D_NET *40 0.000858994
*CONN
*I *4359:D I *D sky130_fd_sc_hd__dfxtp_1
*I *4195:X O *D sky130_fd_sc_hd__o211a_1
*CAP
1 *4359:D 0.000308091
2 *4195:X 0.000308091
3 *4359:D *4194:B 0.000139552
4 *4359:D *267:116 0.00010326
5 *4359:D *495:10 0
*RES
1 *4195:X *4359:D 33.0152 
*END

*D_NET *41 0.000722729
*CONN
*I *4360:D I *D sky130_fd_sc_hd__dfxtp_1
*I *4197:X O *D sky130_fd_sc_hd__o211a_1
*CAP
1 *4360:D 0.000190162
2 *4197:X 0.000190162
3 *4360:D *4197:A1 3.99614e-06
4 *4360:D *4358:CLK 0.000222859
5 *4360:D *267:118 0.000115549
*RES
1 *4197:X *4360:D 22.3009 
*END

*D_NET *42 0.000706501
*CONN
*I *4361:D I *D sky130_fd_sc_hd__dfxtp_1
*I *4199:X O *D sky130_fd_sc_hd__o211a_1
*CAP
1 *4361:D 0.00025931
2 *4199:X 0.00025931
3 *4361:D *4361:CLK 9.76689e-05
4 *4361:D *4369:D 5.33786e-05
5 *4361:D *97:77 0
6 *4361:D *134:81 3.68337e-05
*RES
1 *4199:X *4361:D 32.2116 
*END

*D_NET *43 0.000468663
*CONN
*I *4535:A I *D sky130_fd_sc_hd__dlygate4sd3_1
*I *4201:X O *D sky130_fd_sc_hd__o211a_1
*CAP
1 *4535:A 0.000120043
2 *4201:X 0.000120043
3 *4535:A *4184:A1 0
4 *4535:A *4200:B 0.000142856
5 *4535:A *4201:A1 3.9745e-05
6 *4535:A *267:14 0
7 *4535:A *463:6 3.67257e-05
8 *4535:A *468:14 9.25014e-06
*RES
1 *4201:X *4535:A 30.6 
*END

*D_NET *44 7.46845e-05
*CONN
*I *4533:A I *D sky130_fd_sc_hd__dlygate4sd3_1
*I *4203:X O *D sky130_fd_sc_hd__o211a_1
*CAP
1 *4533:A 2.14084e-05
2 *4203:X 2.14084e-05
3 *4533:A *97:45 3.18676e-05
*RES
1 *4203:X *4533:A 19.1357 
*END

*D_NET *45 0.00116695
*CONN
*I *4558:A I *D sky130_fd_sc_hd__dlygate4sd3_1
*I *4205:X O *D sky130_fd_sc_hd__o211a_1
*CAP
1 *4558:A 0.000224582
2 *4205:X 0.000224582
3 *4558:A *4202:A 5.33005e-05
4 *4558:A *4203:C1 0.000363837
5 *4558:A *259:8 0.000137983
6 *4558:A *306:24 0.000162662
*RES
1 *4205:X *4558:A 24.9036 
*END

*D_NET *46 0.000822674
*CONN
*I *4365:D I *D sky130_fd_sc_hd__dfxtp_1
*I *4207:X O *D sky130_fd_sc_hd__o211a_1
*CAP
1 *4365:D 0.000277486
2 *4207:X 0.000277486
3 *4365:D *4205:A2 0
4 *4365:D *4205:C1 0
5 *4365:D *4365:CLK 0.000190948
6 *4365:D *133:42 7.67529e-05
7 *4365:D *373:164 0
*RES
1 *4207:X *4365:D 33.4795 
*END

*D_NET *47 0.000224634
*CONN
*I *4366:D I *D sky130_fd_sc_hd__dfxtp_1
*I *4212:X O *D sky130_fd_sc_hd__o211a_1
*CAP
1 *4366:D 6.16572e-05
2 *4212:X 6.16572e-05
3 *4366:D *4210:A 1.64343e-05
4 *4366:D *4366:CLK 3.47737e-05
5 *4366:D *490:10 5.01117e-05
*RES
1 *4212:X *4366:D 29.1045 
*END

*D_NET *48 0.000998747
*CONN
*I *4548:A I *D sky130_fd_sc_hd__dlygate4sd3_1
*I *4214:X O *D sky130_fd_sc_hd__o211a_1
*CAP
1 *4548:A 0.000262363
2 *4214:X 0.000262363
3 *4548:A *4212:A2 0.000128154
4 *4548:A *4212:C1 0.000153047
5 *4548:A *4213:A 0
6 *4548:A *4376:CLK 9.21958e-05
7 *4548:A *4560:A 0
8 *4548:A *177:72 0.000100625
*RES
1 *4214:X *4548:A 33.4393 
*END

*D_NET *49 0.000564317
*CONN
*I *4368:D I *D sky130_fd_sc_hd__dfxtp_1
*I *4216:X O *D sky130_fd_sc_hd__o211a_1
*CAP
1 *4368:D 0.000176824
2 *4216:X 0.000176824
3 *4368:D *266:151 0.000100831
4 *4368:D *290:16 2.55587e-05
5 *4368:D *476:16 8.42801e-05
*RES
1 *4216:X *4368:D 30.6938 
*END

*D_NET *50 9.72117e-05
*CONN
*I *4540:A I *D sky130_fd_sc_hd__dlygate4sd3_1
*I *4218:X O *D sky130_fd_sc_hd__o211a_1
*CAP
1 *4540:A 2.00323e-05
2 *4218:X 2.00323e-05
3 *4540:A *4199:A1 5.71472e-05
*RES
1 *4218:X *4540:A 19.1357 
*END

*D_NET *51 0.000567478
*CONN
*I *4537:A I *D sky130_fd_sc_hd__dlygate4sd3_1
*I *4220:X O *D sky130_fd_sc_hd__o211a_1
*CAP
1 *4537:A 0.000112389
2 *4220:X 0.000112389
3 *4537:A *4217:A 0.00014183
4 *4537:A *4220:C1 0.000139913
5 *4537:A *4532:A 0
6 *4537:A *461:25 6.09572e-05
*RES
1 *4220:X *4537:A 30.6 
*END

*D_NET *52 0.000521565
*CONN
*I *4371:D I *D sky130_fd_sc_hd__dfxtp_1
*I *4222:X O *D sky130_fd_sc_hd__o211a_1
*CAP
1 *4371:D 0.000142182
2 *4222:X 0.000142182
3 *4371:D *4371:CLK 5.52238e-05
4 *4371:D *4372:D 0.000103253
5 *4371:D *134:81 2.53274e-05
6 *4371:D *266:79 5.33978e-05
*RES
1 *4222:X *4371:D 30.5688 
*END

*D_NET *53 0.000227366
*CONN
*I *4527:A I *D sky130_fd_sc_hd__dlygate4sd3_1
*I *4224:X O *D sky130_fd_sc_hd__o211a_1
*CAP
1 *4527:A 7.8182e-05
2 *4224:X 7.8182e-05
3 *4527:A *177:27 0
4 *4527:A *178:10 1.76135e-05
5 *4527:A *178:12 5.33882e-05
*RES
1 *4224:X *4527:A 29.2429 
*END

*D_NET *54 0.00183997
*CONN
*I *4482:A I *D sky130_fd_sc_hd__dlygate4sd3_1
*I *4226:X O *D sky130_fd_sc_hd__o211a_1
*CAP
1 *4482:A 0.000495153
2 *4226:X 0.000495153
3 *4482:A *4226:C1 0.000190917
4 *4482:A *4471:A 0.000658743
*RES
1 *4226:X *4482:A 28.6 
*END

*D_NET *55 0.000347461
*CONN
*I *4374:D I *D sky130_fd_sc_hd__dfxtp_1
*I *4230:X O *D sky130_fd_sc_hd__and3_1
*CAP
1 *4374:D 7.78082e-05
2 *4230:X 7.78082e-05
3 *4374:D *4230:C 1.04232e-05
4 *4374:D *4231:A3 9.53138e-05
5 *4374:D *4374:CLK 8.61073e-05
*RES
1 *4230:X *4374:D 21.0107 
*END

*D_NET *56 0.000480293
*CONN
*I *4375:D I *D sky130_fd_sc_hd__dfxtp_1
*I *4233:X O *D sky130_fd_sc_hd__and3b_1
*CAP
1 *4375:D 0.000109972
2 *4233:X 0.000109972
3 *4375:D *4233:C 2.59355e-05
4 *4375:D *4559:A 0.000148903
5 *4375:D *188:10 4.87669e-06
6 *4375:D *488:47 8.06331e-05
*RES
1 *4233:X *4375:D 30.2473 
*END

*D_NET *57 0.000976244
*CONN
*I *4376:D I *D sky130_fd_sc_hd__dfxtp_1
*I *4236:X O *D sky130_fd_sc_hd__and3_1
*CAP
1 *4376:D 0.000422731
2 *4236:X 0.000422731
3 *4376:D *4140:D_N 9.69119e-06
4 *4376:D *4234:A 5.3811e-05
5 *4376:D *192:57 0
6 *4376:D *270:10 0
7 *4376:D *357:8 6.72808e-05
8 *4376:D *380:10 0
*RES
1 *4236:X *4376:D 35.408 
*END

*D_NET *58 0.000183739
*CONN
*I *4443:A I *D sky130_fd_sc_hd__dlygate4sd3_1
*I *4239:X O *D sky130_fd_sc_hd__and3_1
*CAP
1 *4443:A 9.18695e-05
2 *4239:X 9.18695e-05
*RES
1 *4239:X *4443:A 19.975 
*END

*D_NET *59 0.000573542
*CONN
*I *4554:A I *D sky130_fd_sc_hd__dlygate4sd3_1
*I *4241:X O *D sky130_fd_sc_hd__o211a_1
*CAP
1 *4554:A 0.000129195
2 *4241:X 0.000129195
3 *4554:A *4133:A_N 4.08637e-05
4 *4554:A *4241:A1 0.000274288
*RES
1 *4241:X *4554:A 21.6 
*END

*D_NET *60 0.000549052
*CONN
*I *4379:D I *D sky130_fd_sc_hd__dfxtp_1
*I *4244:X O *D sky130_fd_sc_hd__and3b_1
*CAP
1 *4379:D 0.000274526
2 *4244:X 0.000274526
3 *4379:D *134:40 0
4 *4379:D *273:10 0
5 *4379:D *460:50 0
*RES
1 *4244:X *4379:D 32.1759 
*END

*D_NET *61 0.00200893
*CONN
*I *4595:A I *D sky130_fd_sc_hd__dlygate4sd3_1
*I *4247:Y O *D sky130_fd_sc_hd__nor2_1
*CAP
1 *4595:A 0.000806161
2 *4247:Y 0.000806161
3 *4595:A *4245:A2 2.47833e-05
4 *4595:A *4245:A3 0.000210722
5 *4595:A *4247:A 2.60984e-05
6 *4595:A *4247:B 2.89114e-05
7 *4595:A *4594:A 2.89114e-05
8 *4595:A *200:6 7.71836e-05
*RES
1 *4247:Y *4595:A 29.8679 
*END

*D_NET *62 0.000123917
*CONN
*I *4582:A I *D sky130_fd_sc_hd__dlygate4sd3_1
*I *4249:Y O *D sky130_fd_sc_hd__a21oi_1
*CAP
1 *4582:A 5.05876e-05
2 *4249:Y 5.05876e-05
3 *4582:A *510:14 2.27416e-05
*RES
1 *4249:Y *4582:A 19.5643 
*END

*D_NET *63 0.00152906
*CONN
*I *4382:D I *D sky130_fd_sc_hd__dfxtp_1
*I *4252:X O *D sky130_fd_sc_hd__and3b_1
*CAP
1 *4382:D 0.00035744
2 *4252:X 0.00035744
3 *4382:D *4252:C 0.000263763
4 *4382:D *4255:B 9.32873e-05
5 *4382:D *4420:A 0.000110844
6 *4382:D *140:18 0.000103329
7 *4382:D *200:37 0
8 *4382:D *260:96 0.000242953
*RES
1 *4252:X *4382:D 37.5509 
*END

*D_NET *64 0.000422344
*CONN
*I *4470:A I *D sky130_fd_sc_hd__dlygate4sd3_1
*I *4255:Y O *D sky130_fd_sc_hd__nor2_1
*CAP
1 *4470:A 9.64887e-05
2 *4255:Y 9.64887e-05
3 *4470:A *4255:B 0.000128154
4 *4470:A *200:37 6.97972e-05
5 *4470:A *434:20 3.14163e-05
*RES
1 *4255:Y *4470:A 30.1893 
*END

*D_NET *65 0.000695826
*CONN
*I *4467:A I *D sky130_fd_sc_hd__dlygate4sd3_1
*I *4258:Y O *D sky130_fd_sc_hd__nor2_1
*CAP
1 *4467:A 5.44348e-05
2 *4258:Y 5.44348e-05
3 *4467:A *4258:B 0.000320024
4 *4467:A *434:16 0.000144773
5 *4467:A *434:20 0.000122159
*RES
1 *4258:Y *4467:A 22.0107 
*END

*D_NET *66 0.000660732
*CONN
*I *4385:D I *D sky130_fd_sc_hd__dfxtp_1
*I *4261:Y O *D sky130_fd_sc_hd__nor2_1
*CAP
1 *4385:D 0.000250223
2 *4261:Y 0.000250223
3 *4385:D *4261:A 1.74352e-05
4 *4385:D *4261:B 5.33334e-05
5 *4385:D *4385:CLK 8.95186e-05
6 *4385:D *207:36 0
7 *4385:D *260:24 0
*RES
1 *4261:Y *4385:D 31.7607 
*END

*D_NET *67 0.000583722
*CONN
*I *4496:A I *D sky130_fd_sc_hd__dlygate4sd3_1
*I *4264:Y O *D sky130_fd_sc_hd__nor2_1
*CAP
1 *4496:A 0.00012136
2 *4264:Y 0.00012136
3 *4496:A *4262:C 5.7993e-06
4 *4496:A *4264:A 9.60875e-05
5 *4496:A *4266:A2 0.000213179
6 *4496:A *410:14 2.59355e-05
*RES
1 *4264:Y *4496:A 21.6 
*END

*D_NET *68 0.000324212
*CONN
*I *4462:A I *D sky130_fd_sc_hd__dlygate4sd3_1
*I *4267:Y O *D sky130_fd_sc_hd__nor2_1
*CAP
1 *4462:A 0.000105806
2 *4267:Y 0.000105806
3 *4462:A *4267:A 6.48068e-05
4 *4462:A *4267:B 4.77935e-05
*RES
1 *4267:Y *4462:A 29.7786 
*END

*D_NET *69 0.000357057
*CONN
*I *4505:A I *D sky130_fd_sc_hd__dlygate4sd3_1
*I *4270:Y O *D sky130_fd_sc_hd__nor2_1
*CAP
1 *4505:A 0.000122554
2 *4270:Y 0.000122554
3 *4505:A *4270:B 0.000111948
4 *4505:A *215:10 0
5 *4505:A *262:16 0
*RES
1 *4270:Y *4505:A 30.1893 
*END

*D_NET *70 0.000390179
*CONN
*I *4477:A I *D sky130_fd_sc_hd__dlygate4sd3_1
*I *4273:Y O *D sky130_fd_sc_hd__nor2_1
*CAP
1 *4477:A 0.000161177
2 *4273:Y 0.000161177
3 *4477:A *4273:B 2.89016e-05
4 *4477:A *4274:C 0
5 *4477:A *217:10 2.56694e-05
6 *4477:A *274:8 1.32552e-05
*RES
1 *4273:Y *4477:A 30.1893 
*END

*D_NET *71 0.000378473
*CONN
*I *4455:A I *D sky130_fd_sc_hd__dlygate4sd3_1
*I *4276:Y O *D sky130_fd_sc_hd__nor2_1
*CAP
1 *4455:A 0.000189237
2 *4276:Y 0.000189237
3 *4455:A *4276:A 0
*RES
1 *4276:Y *4455:A 30.7964 
*END

*D_NET *72 0.00198798
*CONN
*I *4598:A I *D sky130_fd_sc_hd__dlygate4sd3_1
*I *4278:Y O *D sky130_fd_sc_hd__a21oi_1
*CAP
1 *4598:A 0.000526907
2 *4278:Y 0.000526907
3 *4598:A *4275:B1 0.000269422
4 *4598:A *4276:A 2.78729e-05
5 *4598:A *4279:B1 4.25716e-05
6 *4598:A *4281:B 0
7 *4598:A *4349:CLK 0
8 *4598:A *219:17 0.000357048
9 *4598:A *262:73 4.16984e-05
10 *4598:A *262:82 0
11 *4598:A *344:10 9.01238e-05
12 *4598:A *344:12 5.10822e-05
13 *4598:A *344:14 5.43491e-05
*RES
1 *4278:Y *4598:A 39.9571 
*END

*D_NET *73 0.000939648
*CONN
*I *4486:A I *D sky130_fd_sc_hd__dlygate4sd3_1
*I *4281:X O *D sky130_fd_sc_hd__and3_1
*CAP
1 *4486:A 0.000353451
2 *4281:X 0.000353451
3 *4486:A *4281:C 2.27416e-05
4 *4486:A *4485:A 7.32272e-05
5 *4486:A *140:72 0.000136776
*RES
1 *4281:X *4486:A 25.3143 
*END

*D_NET *74 0.00142815
*CONN
*I *4519:A I *D sky130_fd_sc_hd__dlygate4sd3_1
*I *4282:X O *D sky130_fd_sc_hd__or2_1
*CAP
1 *4519:A 0.000533975
2 *4282:X 0.000533975
3 *4519:A *4282:B 1.15172e-05
4 *4519:A *4329:A 0.000137983
5 *4519:A *4546:A 2.28598e-05
6 *4519:A *100:20 0.000160538
7 *4519:A *100:22 2.72967e-05
8 *4519:A *252:33 0
*RES
1 *4282:X *4519:A 35.1179 
*END

*D_NET *75 0.000377229
*CONN
*I *4398:D I *D sky130_fd_sc_hd__dfxtp_1
*I *4283:X O *D sky130_fd_sc_hd__or2_1
*CAP
1 *4398:D 0.000153899
2 *4283:X 0.000153899
3 *4398:D *4252:B 0
4 *4398:D *4283:A 1.72894e-05
5 *4398:D *4398:CLK 1.64343e-05
6 *4398:D *140:18 0
7 *4398:D *259:116 3.5707e-05
*RES
1 *4283:X *4398:D 30.2473 
*END

*D_NET *76 0.000824492
*CONN
*I *4520:A I *D sky130_fd_sc_hd__dlygate4sd3_1
*I *4284:X O *D sky130_fd_sc_hd__a31o_1
*CAP
1 *4520:A 0.000218766
2 *4284:X 0.000218766
3 *4520:A *4151:A2 1.18064e-05
4 *4520:A *4189:A1 8.07313e-05
5 *4520:A *100:79 0.000294422
*RES
1 *4284:X *4520:A 33.0286 
*END

*D_NET *77 0.00134891
*CONN
*I *4499:A I *D sky130_fd_sc_hd__dlygate4sd3_1
*I *4290:X O *D sky130_fd_sc_hd__and3b_1
*CAP
1 *4499:A 0.000221375
2 *4290:X 0.000221375
3 *4499:A *4125:C 4.18895e-05
4 *4499:A *4288:B1 0.000320024
5 *4499:A *4400:D 5.01213e-05
6 *4499:A *4498:A 0
7 *4499:A *130:68 0.000393629
8 *4499:A *228:8 0.000100498
*RES
1 *4290:X *4499:A 35.0821 
*END

*D_NET *78 0.000726683
*CONN
*I *4401:D I *D sky130_fd_sc_hd__dfxtp_1
*I *4293:X O *D sky130_fd_sc_hd__and3b_1
*CAP
1 *4401:D 0.000206682
2 *4293:X 0.000206682
3 *4401:D *4290:B 1.00073e-05
4 *4401:D *4293:C 2.59093e-05
5 *4401:D *4402:CLK 0.000127114
6 *4401:D *228:8 0
7 *4401:D *228:14 0
8 *4401:D *265:18 0.000150289
*RES
1 *4293:X *4401:D 31.8902 
*END

*D_NET *79 0.000278299
*CONN
*I *4402:D I *D sky130_fd_sc_hd__dfxtp_1
*I *4296:X O *D sky130_fd_sc_hd__and3b_1
*CAP
1 *4402:D 9.97335e-05
2 *4296:X 9.97335e-05
3 *4402:D *4296:C 1.91004e-05
4 *4402:D *4298:A 3.52992e-05
5 *4402:D *4402:CLK 2.44318e-05
*RES
1 *4296:X *4402:D 20.658 
*END

*D_NET *80 0.00148472
*CONN
*I *4513:A I *D sky130_fd_sc_hd__dlygate4sd3_1
*I *4298:X O *D sky130_fd_sc_hd__and2_1
*CAP
1 *4513:A 0.000503216
2 *4298:X 0.000503216
3 *4513:A *4295:A 0
4 *4513:A *4298:A 0.000341032
5 *4513:A *4403:CLK 0
6 *4513:A *4403:D 0
7 *4513:A *311:12 6.42242e-05
8 *574:DIODE *4513:A 7.30305e-05
*RES
1 *4298:X *4513:A 38.2964 
*END

*D_NET *81 0.000434198
*CONN
*I *4404:D I *D sky130_fd_sc_hd__dfxtp_1
*I *4301:X O *D sky130_fd_sc_hd__and3b_1
*CAP
1 *4404:D 0.00011554
2 *4301:X 0.00011554
3 *4404:D *4303:B1 4.1331e-06
4 *4404:D *130:55 9.81617e-05
5 *4404:D *234:8 0.000100823
*RES
1 *4301:X *4404:D 29.9259 
*END

*D_NET *82 0.000751247
*CONN
*I *4517:A I *D sky130_fd_sc_hd__dlygate4sd3_1
*I *4303:Y O *D sky130_fd_sc_hd__a21oi_1
*CAP
1 *4517:A 0.000209145
2 *4303:Y 0.000209145
3 *4517:A *4303:A1 5.19842e-06
4 *4517:A *4303:B1 0.000322453
5 *4517:A *4405:D 0
6 *4517:A *4406:CLK 5.30637e-06
7 *4517:A *264:14 0
*RES
1 *4303:Y *4517:A 32.2071 
*END

*D_NET *83 0.000988336
*CONN
*I *4474:A I *D sky130_fd_sc_hd__dlygate4sd3_1
*I *4307:X O *D sky130_fd_sc_hd__and3b_1
*CAP
1 *4474:A 0.000382781
2 *4307:X 0.000382781
3 *4474:A *4303:A1 0.000181803
4 *4474:A *4304:B1 0
5 *4474:A *4307:B 4.00276e-06
6 *4474:A *4406:D 0
7 *4474:A *4473:A 3.69697e-05
*RES
1 *4307:X *4474:A 32.6536 
*END

*D_NET *84 9.72117e-05
*CONN
*I *4439:A I *D sky130_fd_sc_hd__dlygate4sd3_1
*I *4309:X O *D sky130_fd_sc_hd__o211a_1
*CAP
1 *4439:A 2.00323e-05
2 *4309:X 2.00323e-05
3 *4439:A *4308:A 5.71472e-05
*RES
1 *4309:X *4439:A 19.1357 
*END

*D_NET *85 0.000499572
*CONN
*I *4492:A I *D sky130_fd_sc_hd__dlygate4sd3_1
*I *4312:X O *D sky130_fd_sc_hd__and3b_1
*CAP
1 *4492:A 0.00024226
2 *4312:X 0.00024226
3 *4492:A *4312:C 0
4 *4492:A *144:68 1.50524e-05
*RES
1 *4312:X *4492:A 30.6 
*END

*D_NET *86 0.000926839
*CONN
*I *4589:A I *D sky130_fd_sc_hd__dlygate4sd3_1
*I *4315:Y O *D sky130_fd_sc_hd__nor2_1
*CAP
1 *4589:A 0.000141675
2 *4315:Y 0.000141675
3 *4589:A *4314:A1 0.000226507
4 *4589:A *4314:A2 0.000186662
5 *4589:A *4588:A 2.65105e-05
6 *4589:A *242:48 0.00015152
7 *4589:A *261:46 1.74352e-05
8 *4589:A *516:14 3.4855e-05
*RES
1 *4315:Y *4589:A 23.2607 
*END

*D_NET *87 0.000878975
*CONN
*I *4592:A I *D sky130_fd_sc_hd__dlygate4sd3_1
*I *4318:Y O *D sky130_fd_sc_hd__nor2_1
*CAP
1 *4592:A 0.000367111
2 *4318:Y 0.000367111
3 *4592:A *4318:B 4.0342e-06
4 *4592:A *4408:CLK 7.32272e-05
5 *4592:A *4606:A 0
6 *4592:A *239:12 6.74911e-05
*RES
1 *4318:Y *4592:A 33.1893 
*END

*D_NET *88 0.0001638
*CONN
*I *4525:A I *D sky130_fd_sc_hd__dlygate4sd3_1
*I *4321:Y O *D sky130_fd_sc_hd__nor2_1
*CAP
1 *4525:A 4.77541e-05
2 *4321:Y 4.77541e-05
3 *4525:A *4321:A 1.58163e-05
4 *4525:A *4322:B1 4.87854e-05
5 *4525:A *247:12 3.69047e-06
*RES
1 *4321:Y *4525:A 19.5464 
*END

*D_NET *89 0.000149128
*CONN
*I *4529:A I *D sky130_fd_sc_hd__dlygate4sd3_1
*I *4323:Y O *D sky130_fd_sc_hd__a21oi_1
*CAP
1 *4529:A 3.00565e-05
2 *4323:Y 3.00565e-05
3 *4529:A *4322:A1 3.18676e-05
4 *4529:A *4322:A2 5.71472e-05
*RES
1 *4323:Y *4529:A 19.5643 
*END

*D_NET *90 0.000536708
*CONN
*I *4501:A I *D sky130_fd_sc_hd__dlygate4sd3_1
*I *4326:X O *D sky130_fd_sc_hd__and3b_1
*CAP
1 *4501:A 0.000128568
2 *4326:X 0.000128568
3 *4501:A *4322:A2 3.57366e-05
4 *4501:A *4326:B 5.33334e-05
5 *4501:A *247:29 1.24368e-05
6 *4501:A *251:12 5.71472e-05
7 *4501:A *458:46 0.000120918
*RES
1 *4326:X *4501:A 22.0286 
*END

*D_NET *91 0.000257404
*CONN
*I *4546:A I *D sky130_fd_sc_hd__dlygate4sd3_1
*I *4329:Y O *D sky130_fd_sc_hd__nor2_1
*CAP
1 *4546:A 4.48371e-05
2 *4329:Y 4.48371e-05
3 *4546:A *4282:B 6.05161e-06
4 *4546:A *4329:A 9.71197e-05
5 *4546:A *100:20 4.16984e-05
6 *4519:A *4546:A 2.28598e-05
*RES
1 *4329:Y *4546:A 19.9571 
*END

*D_NET *92 0.00117128
*CONN
*I *4543:A I *D sky130_fd_sc_hd__dlygate4sd3_1
*I *4331:Y O *D sky130_fd_sc_hd__a21oi_1
*CAP
1 *4543:A 0.000297619
2 *4331:Y 0.000297619
3 *4543:A *4167:A1 2.90075e-05
4 *4543:A *4331:A1 9.3111e-05
5 *4543:A *4333:A 9.24395e-05
6 *4543:A *4333:B 7.17235e-05
7 *4543:A *4399:CLK 3.69047e-06
8 *4543:A *4399:D 3.5707e-05
9 *4543:A *4415:CLK 5.52302e-05
10 *4543:A *252:37 0.000139907
11 *4543:A *256:10 5.52302e-05
*RES
1 *4331:Y *4543:A 34.6179 
*END

*D_NET *93 0.00121027
*CONN
*I *4489:A I *D sky130_fd_sc_hd__dlygate4sd3_1
*I *4334:X O *D sky130_fd_sc_hd__and3_1
*CAP
1 *4489:A 0.000367363
2 *4334:X 0.000367363
3 *4489:A *4334:B 0
4 *4489:A *4335:A1 7.6644e-05
5 *4489:A *4335:A3 0.000173921
6 *4489:A *4488:A 6.42338e-05
7 *4489:A *471:8 8.47203e-05
8 *4489:A *471:12 7.6021e-05
*RES
1 *4334:X *4489:A 34.6714 
*END

*D_NET *94 0.000665138
*CONN
*I *4604:A I *D sky130_fd_sc_hd__dlygate4sd3_1
*I *4336:X O *D sky130_fd_sc_hd__o211a_1
*CAP
1 *4604:A 0.000156272
2 *4336:X 0.000156272
3 *4604:A *4336:A1 0.000227526
4 *4604:A *4417:D 2.89114e-05
5 *4604:A *144:122 9.61553e-05
*RES
1 *4336:X *4604:A 22.4214 
*END

*D_NET *95 0.00410513
*CONN
*I *4483:A I *D sky130_fd_sc_hd__dlygate4sd3_1
*I *4338:X O *D sky130_fd_sc_hd__or3_1
*CAP
1 *4483:A 0.00115373
2 *4338:X 0.00115373
3 *4483:A *4337:B2 1.39726e-05
4 *4483:A *4337:C1 0.000152861
5 *4483:A *4338:A 0.000262498
6 *4483:A *4338:B 4.70078e-05
7 *4483:A *4418:D 9.66042e-05
8 *4483:A *4425:A 9.41642e-05
9 *4483:A *4480:A 0.000371629
10 *4483:A *4481:A 8.25843e-06
11 *4483:A *100:193 1.25363e-05
12 *4483:A *265:10 0.000351985
13 *4483:A *335:12 0.000152861
14 *4483:A *362:47 0.000233305
*RES
1 *4338:X *4483:A 47.4393 
*END

*D_NET *96 0.0011835
*CONN
*I *4336:A1 I *D sky130_fd_sc_hd__o211a_1
*I *4096:Y O *D sky130_fd_sc_hd__inv_2
*CAP
1 *4336:A1 0.000220365
2 *4096:Y 0.000220365
3 *4336:A1 *4151:A2 0
4 *4336:A1 *144:122 0.000358965
5 *4336:A1 *259:14 0.000148903
6 *4336:A1 *259:92 3.69047e-06
7 *4336:A1 *350:6 3.69047e-06
8 *4604:A *4336:A1 0.000227526
*RES
1 *4096:Y *4336:A1 33.4929 
*END

*D_NET *97 0.0149542
*CONN
*I *4227:A I *D sky130_fd_sc_hd__and3_1
*I *4135:C1 I *D sky130_fd_sc_hd__a211oi_4
*I *4207:A2 I *D sky130_fd_sc_hd__o211a_1
*I *4195:A2 I *D sky130_fd_sc_hd__o211a_1
*I *4197:A2 I *D sky130_fd_sc_hd__o211a_1
*I *4193:A2 I *D sky130_fd_sc_hd__o211a_1
*I *4199:A2 I *D sky130_fd_sc_hd__o211a_1
*I *4201:A2 I *D sky130_fd_sc_hd__o211a_1
*I *4203:A2 I *D sky130_fd_sc_hd__o211a_1
*I *4205:A2 I *D sky130_fd_sc_hd__o211a_1
*I *4097:Y O *D sky130_fd_sc_hd__inv_2
*CAP
1 *4227:A 0.000180232
2 *4135:C1 0
3 *4207:A2 0
4 *4195:A2 0.000390764
5 *4197:A2 2.25061e-05
6 *4193:A2 0.000114627
7 *4199:A2 0
8 *4201:A2 1.67212e-05
9 *4203:A2 0
10 *4205:A2 0.000479202
11 *4097:Y 0
12 *97:103 0.000504601
13 *97:88 0.000423198
14 *97:77 0.000877173
15 *97:62 0.00115462
16 *97:45 0.00140362
17 *97:24 0.00140486
18 *97:22 0.000455273
19 *97:12 0.000637595
20 *97:6 0.000362554
21 *4193:A2 *4193:B1 0.000178586
22 *4193:A2 *4197:A1 1.74352e-05
23 *4195:A2 *4195:A1 0.000239448
24 *4195:A2 *4195:B1 7.0603e-05
25 *4195:A2 *4195:C1 1.59782e-05
26 *4195:A2 *4358:CLK 0.000137983
27 *4195:A2 *479:10 0.000110697
28 *4197:A2 *4195:B1 3.4323e-06
29 *4197:A2 *4358:CLK 0
30 *4197:A2 *362:185 1.02504e-05
31 *4201:A2 *4201:B1 1.04232e-05
32 *4205:A2 *4205:C1 0.00010096
33 *4205:A2 *259:8 7.32955e-05
34 *4205:A2 *306:24 0
35 *4205:A2 *373:164 0.000248282
36 *4205:A2 *373:173 9.54798e-06
37 *4227:A *4136:C 0.000202128
38 *4227:A *4227:C 0
39 *4227:A *460:12 2.14378e-05
40 *4227:A *460:25 0.00022117
41 *4227:A *460:42 0.000150625
42 *4227:A *488:47 0
43 *97:12 *4135:B1 0.000127446
44 *97:12 *4136:C 0.000175519
45 *97:12 *131:12 0
46 *97:12 *133:10 4.64287e-05
47 *97:12 *180:19 0
48 *97:12 *460:12 9.97744e-05
49 *97:12 *460:109 5.03772e-05
50 *97:22 *555:DIODE 0.000225609
51 *97:22 *4133:B 6.07626e-05
52 *97:22 *4211:B 0.00015234
53 *97:22 *4471:A 0
54 *97:22 *4536:A 0.00014183
55 *97:22 *131:12 0
56 *97:22 *133:10 0.000478026
57 *97:22 *180:19 0
58 *97:22 *259:160 1.02821e-05
59 *97:22 *460:126 0.000154354
60 *97:45 *4203:A1 2.78584e-05
61 *97:45 *4203:B1 2.53134e-05
62 *97:45 *4205:A1 0.000181796
63 *97:45 *4207:A1 0
64 *97:45 *4373:D 0.000227539
65 *97:45 *298:10 0.000110076
66 *97:45 *373:173 1.10632e-05
67 *97:45 *373:216 0.000133811
68 *97:45 *486:6 0.000230482
69 *97:62 *4201:C1 0.000142003
70 *97:62 *4203:A1 3.44824e-05
71 *97:62 *4203:B1 8.19524e-05
72 *97:62 *4203:C1 5.71472e-05
73 *97:62 *373:355 1.32552e-05
74 *97:62 *373:359 9.06845e-05
75 *97:77 *4181:A2 1.98839e-05
76 *97:77 *4181:C1 5.33005e-05
77 *97:77 *4362:D 5.01117e-05
78 *97:77 *4369:D 0
79 *97:77 *267:14 8.22802e-05
80 *97:77 *267:38 7.04538e-05
81 *97:77 *362:170 1.69115e-05
82 *97:77 *373:343 1.02504e-05
83 *97:77 *373:355 0.000396658
84 *97:77 *460:179 0
85 *97:77 *491:12 0.000342677
86 *97:88 *4193:C1 0.000125731
87 *97:88 *4197:C1 0.000127446
88 *97:88 *362:170 4.1331e-06
89 *97:88 *362:185 9.67796e-05
90 *97:103 *4193:B1 0.000130419
91 *97:103 *4195:B1 5.52238e-05
92 *4361:D *97:77 0
93 *4365:D *4205:A2 0
94 *4460:A *4195:A2 0
95 *4533:A *97:45 3.18676e-05
*RES
1 *4097:Y *97:6 13.8 
2 *97:6 *97:12 9.82143 
3 *97:12 *97:22 20.875 
4 *97:22 *97:24 4.5 
5 *97:24 *4205:A2 22.8536 
6 *97:24 *97:45 22.1964 
7 *97:45 *4203:A2 9.3 
8 *97:45 *97:62 9.66071 
9 *97:62 *4201:A2 9.72857 
10 *97:62 *97:77 20.8571 
11 *97:77 *4199:A2 13.8 
12 *97:77 *97:88 10.0893 
13 *97:88 *4193:A2 11.8 
14 *97:88 *97:103 6.54464 
15 *97:103 *4197:A2 14.3804 
16 *97:103 *4195:A2 30.1304 
17 *97:22 *4207:A2 9.3 
18 *97:12 *4135:C1 9.3 
19 *97:6 *4227:A 19.0857 
*END

*D_NET *98 0.000805159
*CONN
*I *4153:A1 I *D sky130_fd_sc_hd__a21o_1
*I *4098:Y O *D sky130_fd_sc_hd__inv_2
*CAP
1 *4153:A1 0.000206455
2 *4098:Y 0.000206455
3 *4153:A1 *537:DIODE 0.000181866
4 *4153:A1 *4153:A2 0.000133738
5 *4153:A1 *267:101 7.6644e-05
*RES
1 *4098:Y *4153:A1 30.9393 
*END

*D_NET *99 0.000522408
*CONN
*I *4227:B I *D sky130_fd_sc_hd__and3_1
*I *4099:Y O *D sky130_fd_sc_hd__inv_2
*CAP
1 *4227:B 0.000178093
2 *4099:Y 0.000178093
3 *4227:B *4375:CLK 7.17235e-05
4 *4227:B *373:270 3.92757e-05
5 *4227:B *460:42 5.52238e-05
6 *4227:B *488:47 0
*RES
1 *4099:Y *4227:B 30.4036 
*END

*D_NET *100 0.0347516
*CONN
*I *555:DIODE I *D sky130_fd_sc_hd__diode_2
*I *525:DIODE I *D sky130_fd_sc_hd__diode_2
*I *4211:B I *D sky130_fd_sc_hd__nor2_2
*I *4124:C1 I *D sky130_fd_sc_hd__a221o_1
*I *4144:A I *D sky130_fd_sc_hd__nor2_4
*I *531:DIODE I *D sky130_fd_sc_hd__diode_2
*I *4165:B1 I *D sky130_fd_sc_hd__a21o_1
*I *545:DIODE I *D sky130_fd_sc_hd__diode_2
*I *4150:A I *D sky130_fd_sc_hd__nor2_4
*I *541:DIODE I *D sky130_fd_sc_hd__diode_2
*I *4153:B1 I *D sky130_fd_sc_hd__a21o_1
*I *537:DIODE I *D sky130_fd_sc_hd__diode_2
*I *4163:B1 I *D sky130_fd_sc_hd__a21o_1
*I *4161:B1 I *D sky130_fd_sc_hd__a21o_1
*I *543:DIODE I *D sky130_fd_sc_hd__diode_2
*I *4338:A I *D sky130_fd_sc_hd__or3_1
*I *561:DIODE I *D sky130_fd_sc_hd__diode_2
*I *4285:B1 I *D sky130_fd_sc_hd__a2111o_1
*I *4146:A I *D sky130_fd_sc_hd__nor3_1
*I *533:DIODE I *D sky130_fd_sc_hd__diode_2
*I *528:DIODE I *D sky130_fd_sc_hd__diode_2
*I *4139:C1 I *D sky130_fd_sc_hd__a221o_1
*I *560:DIODE I *D sky130_fd_sc_hd__diode_2
*I *534:DIODE I *D sky130_fd_sc_hd__diode_2
*I *524:DIODE I *D sky130_fd_sc_hd__diode_2
*I *547:DIODE I *D sky130_fd_sc_hd__diode_2
*I *4167:B1 I *D sky130_fd_sc_hd__a21o_1
*I *4282:A I *D sky130_fd_sc_hd__or2_1
*I *557:DIODE I *D sky130_fd_sc_hd__diode_2
*I *558:DIODE I *D sky130_fd_sc_hd__diode_2
*I *4283:A I *D sky130_fd_sc_hd__or2_1
*I *4100:Y O *D sky130_fd_sc_hd__inv_4
*CAP
1 *555:DIODE 0.000518011
2 *525:DIODE 0
3 *4211:B 8.28085e-05
4 *4124:C1 0
5 *4144:A 1.46425e-05
6 *531:DIODE 9.0998e-05
7 *4165:B1 0.000148013
8 *545:DIODE 0
9 *4150:A 0
10 *541:DIODE 0
11 *4153:B1 2.0816e-05
12 *537:DIODE 0.000213072
13 *4163:B1 0.000547173
14 *4161:B1 0
15 *543:DIODE 0
16 *4338:A 0.000106493
17 *561:DIODE 0
18 *4285:B1 0
19 *4146:A 0
20 *533:DIODE 0
21 *528:DIODE 0.000125754
22 *4139:C1 2.23854e-05
23 *560:DIODE 0
24 *534:DIODE 0
25 *524:DIODE 0
26 *547:DIODE 0
27 *4167:B1 2.23854e-05
28 *4282:A 0
29 *557:DIODE 0
30 *558:DIODE 0
31 *4283:A 0.00010664
32 *4100:Y 0
33 *100:338 0.000536118
34 *100:328 0.000642534
35 *100:317 0.000337497
36 *100:315 0.000208249
37 *100:313 0.0006794
38 *100:295 0.000190977
39 *100:291 0.000278516
40 *100:263 0.000801926
41 *100:245 0.000664111
42 *100:217 0.000547173
43 *100:215 0.000195277
44 *100:206 0.000593768
45 *100:193 0.00156227
46 *100:174 0.00109027
47 *100:135 0.000544801
48 *100:127 0.000634309
49 *100:123 0.000431325
50 *100:117 0.000249775
51 *100:115 0.000469079
52 *100:106 0.00151805
53 *100:90 0.00145712
54 *100:79 0.000613865
55 *100:66 0.000404906
56 *100:59 1.40355e-05
57 *100:57 0.000201978
58 *100:24 0.000322857
59 *100:22 0.000316824
60 *100:20 0.000770818
61 *100:8 0.000840342
62 *100:4 0.000275563
63 *528:DIODE *4125:A 0.000297855
64 *528:DIODE *4139:A2 1.46576e-05
65 *528:DIODE *4139:B2 3.03567e-05
66 *528:DIODE *4297:B 1.58163e-05
67 *531:DIODE *259:160 0.00014285
68 *537:DIODE *4153:A2 4.60235e-05
69 *537:DIODE *4158:A1 0.00011398
70 *537:DIODE *4561:A 0.000137983
71 *537:DIODE *491:6 5.49544e-05
72 *555:DIODE *4204:B 0.000144773
73 *555:DIODE *4205:A1 0
74 *555:DIODE *4206:B 1.721e-05
75 *555:DIODE *4207:A1 7.77652e-05
76 *555:DIODE *4207:C1 3.92854e-05
77 *555:DIODE *373:173 0
78 *555:DIODE *460:109 8.08022e-05
79 *555:DIODE *460:126 2.24225e-05
80 *4144:A *4144:B 5.71472e-05
81 *4153:B1 *4153:A2 3.41517e-06
82 *4163:B1 *4164:B1 5.20669e-05
83 *4163:B1 *4178:B1 0.000225988
84 *4163:B1 *4353:D 3.47797e-05
85 *4163:B1 *4570:A 3.18747e-05
86 *4163:B1 *4614:A 9.8621e-05
87 *4163:B1 *133:108 0.000196353
88 *4163:B1 *259:64 0
89 *4163:B1 *267:65 0.000240342
90 *4165:B1 *133:23 9.90431e-05
91 *4165:B1 *133:42 0.000118456
92 *4211:B *4133:B 5.80706e-06
93 *4211:B *133:10 2.26424e-05
94 *4211:B *259:160 0
95 *4211:B *465:8 6.65398e-05
96 *4338:A *4338:B 1.98839e-05
97 *4338:A *4338:C 0.000177821
98 *100:8 *252:33 0.000202891
99 *100:8 *252:37 1.97695e-05
100 *100:20 *4282:B 9.80173e-05
101 *100:20 *4414:D 9.25014e-06
102 *100:20 *152:16 5.52302e-05
103 *100:20 *252:12 0
104 *100:20 *252:33 7.77751e-05
105 *100:57 *4100:A 0.000197269
106 *100:57 *4333:C 0
107 *100:66 *4100:A 5.52302e-05
108 *100:66 *4206:A 2.89114e-05
109 *100:79 *4100:A 0.000144773
110 *100:79 *4151:A2 0.00034008
111 *100:79 *4189:A1 0
112 *100:79 *4206:A 0.000646036
113 *100:79 *4284:A1 7.77652e-05
114 *100:79 *373:132 1.17968e-05
115 *100:79 *373:145 0.00064307
116 *100:90 *4189:A1 2.77143e-05
117 *100:90 *4189:A2 2.94103e-05
118 *100:90 *4189:C1 2.59355e-05
119 *100:90 *130:16 4.1331e-06
120 *100:90 *264:117 0
121 *100:90 *373:70 5.66157e-05
122 *100:90 *373:72 0.00012401
123 *100:90 *373:74 4.56437e-05
124 *100:106 *4101:A 1.24368e-05
125 *100:106 *4341:D 8.16035e-05
126 *100:106 *4603:A 3.14163e-05
127 *100:106 *130:16 1.00375e-05
128 *100:106 *144:10 0.000128154
129 *100:106 *335:12 6.46302e-05
130 *100:106 *373:74 0.000154762
131 *100:115 *4101:A 1.98839e-05
132 *100:115 *4337:C1 0.000312209
133 *100:115 *335:12 2.88018e-06
134 *100:117 *360:75 0.000113038
135 *100:117 *514:16 6.09476e-05
136 *100:123 *4126:B 5.30725e-05
137 *100:123 *4146:B 6.96421e-05
138 *100:123 *4285:A2 0
139 *100:123 *4285:C1 7.83659e-05
140 *100:123 *4286:B 0
141 *100:123 *360:75 1.02504e-05
142 *100:123 *514:16 5.80706e-06
143 *100:127 *4132:A3 0
144 *100:127 *4285:A2 0
145 *100:127 *4286:B 0
146 *100:127 *228:8 0
147 *100:127 *265:12 0
148 *100:127 *362:70 2.39923e-05
149 *100:127 *367:14 0
150 *100:127 *423:10 3.25247e-05
151 *100:135 *4125:A 0.000467834
152 *100:135 *4125:C 0.000403585
153 *100:135 *4125:D_N 0.000142157
154 *100:135 *4297:B 1.21258e-05
155 *100:135 *372:21 0.000171913
156 *100:174 *4102:A 9.71197e-05
157 *100:174 *360:75 0.000238521
158 *100:174 *514:16 0.000125918
159 *100:193 *4102:A 5.52302e-05
160 *100:193 *4146:B 1.02504e-05
161 *100:193 *4156:A1 0
162 *100:193 *4337:A2 0.00036257
163 *100:193 *4337:B2 7.52374e-05
164 *100:193 *4338:B 9.45471e-05
165 *100:193 *4481:A 0.000398324
166 *100:193 *259:53 5.41794e-05
167 *100:193 *265:93 0.000101132
168 *100:193 *514:16 1.78353e-05
169 *100:206 *4156:A1 0
170 *100:206 *4346:D 0
171 *100:206 *4348:CLK 3.17163e-05
172 *100:206 *4352:CLK 0.000214335
173 *100:206 *4352:D 0.000151333
174 *100:206 *4600:A 0
175 *100:206 *133:114 0.000154078
176 *100:206 *134:115 0.000160517
177 *100:206 *265:93 0.000147125
178 *100:206 *339:18 3.44781e-05
179 *100:206 *495:12 0
180 *100:215 *4348:CLK 8.56269e-05
181 *100:215 *133:114 3.36686e-05
182 *100:215 *133:134 1.30764e-05
183 *100:215 *133:147 1.02504e-05
184 *100:245 *4348:CLK 9.24395e-05
185 *100:245 *133:147 0.000165269
186 *100:263 *4154:B1_N 0.000124869
187 *100:263 *4158:A1 2.84026e-05
188 *100:263 *4158:C1 0.000154923
189 *100:263 *4161:A1 3.67548e-05
190 *100:263 *4345:CLK 4.43256e-05
191 *100:263 *4530:A 0.000114759
192 *100:263 *267:6 0.000137983
193 *100:263 *267:59 0
194 *100:263 *267:101 0
195 *100:263 *495:12 0.000238272
196 *100:263 *500:10 0.000175512
197 *100:291 *4100:A 2.31791e-05
198 *100:291 *4206:B 4.66203e-05
199 *100:291 *4207:C1 3.69697e-05
200 *100:295 *133:42 1.39726e-05
201 *100:313 *4206:B 0.000200491
202 *100:313 *4207:C1 0.000207268
203 *100:317 *259:160 0.000310298
204 *100:328 *4394:D 0
205 *100:328 *133:10 2.61337e-05
206 *100:328 *151:10 0
207 *100:338 *4124:A1 1.15172e-05
208 *100:338 *4124:B2 1.21289e-05
209 *100:338 *4144:B 3.05446e-05
210 *100:338 *4536:A 0.00046391
211 *100:338 *259:160 0.000316184
212 *100:338 *287:14 1.05729e-05
213 *4153:A1 *537:DIODE 0.000181866
214 *4398:D *4283:A 1.72894e-05
215 *4452:A *528:DIODE 1.72894e-05
216 *4483:A *4338:A 0.000262498
217 *4483:A *100:193 1.25363e-05
218 *4519:A *100:20 0.000160538
219 *4519:A *100:22 2.72967e-05
220 *4520:A *100:79 0.000294422
221 *4522:A *100:338 3.18676e-05
222 *4546:A *100:20 4.16984e-05
223 *4563:A *100:245 5.33005e-05
224 *4563:A *100:263 5.33005e-05
225 *4578:A *100:263 4.43256e-05
226 *97:22 *555:DIODE 0.000225609
227 *97:22 *4211:B 0.00015234
*RES
1 *4100:Y *100:4 9.3 
2 *100:4 *100:8 3.83929 
3 *100:8 *100:20 19.4107 
4 *100:20 *100:22 1.76786 
5 *100:22 *100:24 3.41071 
6 *100:24 *4283:A 11.0679 
7 *100:24 *558:DIODE 9.3 
8 *100:22 *557:DIODE 9.3 
9 *100:20 *4282:A 9.3 
10 *100:8 *4167:B1 9.72857 
11 *100:4 *100:57 7.05357 
12 *100:57 *100:59 4.5 
13 *100:59 *547:DIODE 9.3 
14 *100:59 *100:66 0.535714 
15 *100:66 *524:DIODE 9.3 
16 *100:66 *100:79 26.125 
17 *100:79 *534:DIODE 9.3 
18 *100:79 *100:90 8.71429 
19 *100:90 *100:106 23.0893 
20 *100:106 *560:DIODE 9.3 
21 *100:106 *100:115 8.32143 
22 *100:115 *100:117 1.64286 
23 *100:117 *100:123 3.92857 
24 *100:123 *100:127 8.57143 
25 *100:127 *100:135 10.3393 
26 *100:135 *4139:C1 9.72857 
27 *100:135 *528:DIODE 12.7107 
28 *100:127 *533:DIODE 9.3 
29 *100:123 *4146:A 13.8 
30 *100:117 *4285:B1 13.8 
31 *100:115 *100:174 8.60714 
32 *100:174 *561:DIODE 9.3 
33 *100:174 *100:193 27.7321 
34 *100:193 *4338:A 16.8179 
35 *100:193 *100:206 12.2679 
36 *100:206 *543:DIODE 13.8 
37 *100:206 *100:215 2.25 
38 *100:215 *100:217 4.5 
39 *100:217 *4161:B1 9.3 
40 *100:217 *4163:B1 30.3536 
41 *100:215 *100:245 7.28571 
42 *100:245 *100:263 31.7321 
43 *100:263 *537:DIODE 14.3536 
44 *100:263 *4153:B1 9.72857 
45 *100:245 *541:DIODE 9.3 
46 *100:90 *4150:A 13.8 
47 *100:57 *100:291 1.64286 
48 *100:291 *100:295 5.03571 
49 *100:295 *545:DIODE 9.3 
50 *100:295 *4165:B1 12.6393 
51 *100:291 *100:313 4.98214 
52 *100:313 *100:315 4.5 
53 *100:315 *100:317 3 
54 *100:317 *531:DIODE 10.6571 
55 *100:317 *100:328 5.23214 
56 *100:328 *100:338 14.7321 
57 *100:338 *4144:A 9.83571 
58 *100:338 *4124:C1 9.3 
59 *100:328 *4211:B 16.3536 
60 *100:315 *525:DIODE 9.3 
61 *100:313 *555:DIODE 30.9429 
*END

*D_NET *101 0.00193686
*CONN
*I *4337:C1 I *D sky130_fd_sc_hd__o221a_1
*I *4101:Y O *D sky130_fd_sc_hd__inv_2
*CAP
1 *4337:C1 0.000468871
2 *4101:Y 0.000468871
3 *4337:C1 *4337:B1 0.000214327
4 *4337:C1 *4418:D 0.000136682
5 *4337:C1 *4425:A 9.41642e-05
6 *4337:C1 *259:53 7.80851e-06
7 *4337:C1 *335:12 8.10658e-05
8 *4483:A *4337:C1 0.000152861
9 *100:115 *4337:C1 0.000312209
*RES
1 *4101:Y *4337:C1 37.9929 
*END

*D_NET *102 0.00177634
*CONN
*I *4337:A2 I *D sky130_fd_sc_hd__o221a_1
*I *4146:B I *D sky130_fd_sc_hd__nor3_1
*I *4102:Y O *D sky130_fd_sc_hd__inv_2
*CAP
1 *4337:A2 0.000153365
2 *4146:B 0.000230787
3 *4102:Y 0
4 *102:4 0.000384153
5 *4146:B *4286:B 5.24274e-05
6 *4146:B *259:42 7.50697e-05
7 *4146:B *259:53 6.57616e-05
8 *4146:B *265:10 1.09026e-05
9 *4146:B *265:12 1.78353e-05
10 *4146:B *514:16 0.000157474
11 *4337:A2 *4337:B1 0.000145022
12 *4337:A2 *4337:B2 4.10796e-05
13 *100:123 *4146:B 6.96421e-05
14 *100:193 *4146:B 1.02504e-05
15 *100:193 *4337:A2 0.00036257
*RES
1 *4102:Y *102:4 9.3 
2 *102:4 *4146:B 24.4964 
3 *102:4 *4337:A2 13.5679 
*END

*D_NET *103 0.00259865
*CONN
*I *4118:A I *D sky130_fd_sc_hd__nor4_1
*I *4108:A I *D sky130_fd_sc_hd__or4_2
*I *4121:A I *D sky130_fd_sc_hd__or4_1
*I *4103:X O *D sky130_fd_sc_hd__or2_1
*CAP
1 *4118:A 0
2 *4108:A 0.000162676
3 *4121:A 0.00018942
4 *4103:X 0.000119883
5 *103:12 0.000374956
6 *103:10 0.000142743
7 *4108:A *4114:C_N 0.00035013
8 *4108:A *4118:B 5.33005e-05
9 *4108:A *4118:D 8.3725e-05
10 *4108:A *276:33 5.52238e-05
11 *4108:A *276:39 0.000449426
12 *4121:A *4109:A 0.000132316
13 *4121:A *4113:A 0.000100823
14 *4121:A *4113:C 0
15 *4121:A *4114:C_N 0.000125717
16 *4121:A *4122:B1_N 4.58976e-05
17 *103:10 *4113:A 0.000114759
18 *103:10 *4135:A2 1.92905e-05
19 *103:10 *134:24 0
20 *103:12 *4113:A 4.66511e-05
21 *103:12 *4114:C_N 3.17148e-05
22 *103:12 *134:24 0
*RES
1 *4103:X *103:10 15.9786 
2 *103:10 *103:12 0.732143 
3 *103:12 *4121:A 18.4786 
4 *103:12 *4108:A 19.9964 
5 *103:10 *4118:A 13.8 
*END

*D_NET *104 0.000230973
*CONN
*I *4108:B I *D sky130_fd_sc_hd__or4_2
*I *4104:X O *D sky130_fd_sc_hd__or4b_1
*CAP
1 *4108:B 6.59684e-05
2 *4104:X 6.59684e-05
3 *4108:B *276:39 9.90367e-05
*RES
1 *4104:X *4108:B 19.5464 
*END

*D_NET *105 0.00289139
*CONN
*I *4251:A I *D sky130_fd_sc_hd__and2_1
*I *4256:C I *D sky130_fd_sc_hd__and4_1
*I *4253:B I *D sky130_fd_sc_hd__and3_1
*I *4105:X O *D sky130_fd_sc_hd__and2_1
*CAP
1 *4251:A 0.000169179
2 *4256:C 2.9721e-05
3 *4253:B 0.000161878
4 *4105:X 9.54826e-05
5 *105:14 0.000499494
6 *105:8 0.000572556
7 *4251:A *4420:A 0.000397911
8 *4253:B *4256:A 9.25014e-06
9 *4253:B *4256:D 4.43256e-05
10 *4253:B *4257:A2 9.56112e-07
11 *4253:B *200:37 9.90431e-05
12 *4253:B *205:8 3.48282e-05
13 *4256:C *4256:B 5.52238e-05
14 *4256:C *4256:D 9.90367e-05
15 *105:8 *4257:A2 5.41794e-05
16 *105:8 *281:23 5.01028e-05
17 *105:8 *282:19 0
18 *105:14 *4256:A 0.00028855
19 *105:14 *4257:A1 0
20 *105:14 *4257:A2 0.000229678
21 *105:14 *282:19 0
*RES
1 *4105:X *105:8 15.7464 
2 *105:8 *105:14 7.46429 
3 *105:14 *4253:B 17.0321 
4 *105:14 *4256:C 14.7464 
5 *105:8 *4251:A 17.6214 
*END

*D_NET *106 0.000891685
*CONN
*I *4551:A I *D sky130_fd_sc_hd__dlygate4sd3_1
*I *4106:Y O *D sky130_fd_sc_hd__nand4b_1
*CAP
1 *4551:A 0.000320429
2 *4106:Y 0.000320429
3 *4551:A *4106:C 3.69697e-05
4 *4551:A *4114:D_N 0
5 *4551:A *4121:B 0
6 *4551:A *279:18 0
7 *4551:A *282:43 5.01213e-05
8 *4551:A *283:75 0.000163737
*RES
1 *4106:Y *4551:A 33.2339 
*END

*D_NET *107 0.000931851
*CONN
*I *4108:D I *D sky130_fd_sc_hd__or4_2
*I *4107:X O *D sky130_fd_sc_hd__or4b_1
*CAP
1 *4108:D 0.000318296
2 *4107:X 0.000318296
3 *4108:D *4104:A 4.46186e-06
4 *4108:D *4107:A 0
5 *4108:D *4108:C 6.09572e-05
6 *4108:D *4119:D_N 1.69115e-05
7 *4108:D *4121:C 1.00375e-05
8 *4108:D *4121:D 0.000202891
*RES
1 *4107:X *4108:D 32.9571 
*END

*D_NET *108 0.00507391
*CONN
*I *4135:A1 I *D sky130_fd_sc_hd__a211oi_4
*I *4553:A I *D sky130_fd_sc_hd__dlygate4sd3_1
*I *4108:X O *D sky130_fd_sc_hd__or4_2
*CAP
1 *4135:A1 0.000616831
2 *4553:A 3.12428e-05
3 *4108:X 0.000796503
4 *108:12 0.00144458
5 *4135:A1 *4135:A2 0.000646913
6 *4135:A1 *4241:A2 0.000573169
7 *4135:A1 *290:29 9.60875e-05
8 *4135:A1 *460:6 6.09688e-05
9 *108:12 *4118:D 0.000655788
10 *108:12 *118:10 0.000151834
11 *108:12 *200:23 0
*RES
1 *4108:X *108:12 29.3179 
2 *108:12 *4553:A 10.0321 
3 *108:12 *4135:A1 24.3714 
*END

*D_NET *109 0.000943424
*CONN
*I *4113:A I *D sky130_fd_sc_hd__or4_2
*I *4109:Y O *D sky130_fd_sc_hd__nand2_1
*CAP
1 *4113:A 0.000196142
2 *4109:Y 0.000196142
3 *4113:A *4113:C 2.28335e-05
4 *4113:A *4135:A2 1.24368e-05
5 *4113:A *134:24 0
6 *4113:A *276:33 0.000241198
7 *4113:A *277:35 1.24368e-05
8 *4121:A *4113:A 0.000100823
9 *103:10 *4113:A 0.000114759
10 *103:12 *4113:A 4.66511e-05
*RES
1 *4109:Y *4113:A 32.6179 
*END

*D_NET *110 0.000138361
*CONN
*I *4113:B I *D sky130_fd_sc_hd__or4_2
*I *4110:X O *D sky130_fd_sc_hd__or4b_1
*CAP
1 *4113:B 4.83848e-05
2 *4110:X 4.83848e-05
3 *4113:B *277:18 4.15914e-05
*RES
1 *4110:X *4113:B 28.6357 
*END

*D_NET *111 0.00107245
*CONN
*I *4113:C I *D sky130_fd_sc_hd__or4_2
*I *4111:X O *D sky130_fd_sc_hd__or4b_1
*CAP
1 *4113:C 0.000312383
2 *4111:X 0.000312383
3 *4113:C *4109:A 8.00806e-05
4 *4113:C *4114:A 0.000174797
5 *4113:C *4114:C_N 0
6 *4113:C *4114:D_N 0.000136491
7 *4113:C *4121:C 0
8 *4113:C *276:33 3.34783e-05
9 *4113:C *480:32 0
10 *4113:A *4113:C 2.28335e-05
11 *4121:A *4113:C 0
*RES
1 *4111:X *4113:C 34.1 
*END

*D_NET *112 0.00178125
*CONN
*I *4113:D I *D sky130_fd_sc_hd__or4_2
*I *4112:X O *D sky130_fd_sc_hd__or4b_1
*CAP
1 *4113:D 0.000431612
2 *4112:X 0.000431612
3 *4113:D *4104:A 0.000142856
4 *4113:D *4117:B 0.00010326
5 *4113:D *4118:D 5.33005e-05
6 *4113:D *4119:B 2.24079e-05
7 *4113:D *4119:C_N 0.000271345
8 *4113:D *274:20 0.000104974
9 *4113:D *277:35 0.000219887
*RES
1 *4112:X *4113:D 37.2786 
*END

*D_NET *113 0.00297097
*CONN
*I *4135:A2 I *D sky130_fd_sc_hd__a211oi_4
*I *4113:X O *D sky130_fd_sc_hd__or4_2
*CAP
1 *4135:A2 0.000568572
2 *4113:X 0.000568572
3 *4135:A2 *4103:B 0.000137983
4 *4135:A2 *134:14 0.00084612
5 *4135:A2 *277:35 1.97695e-05
6 *4135:A2 *290:29 9.41642e-05
7 *4135:A2 *460:6 5.71472e-05
8 *4113:A *4135:A2 1.24368e-05
9 *4135:A1 *4135:A2 0.000646913
10 *103:10 *4135:A2 1.92905e-05
*RES
1 *4113:X *4135:A2 37.225 
*END

*D_NET *114 0.0002326
*CONN
*I *4118:B I *D sky130_fd_sc_hd__nor4_1
*I *4114:X O *D sky130_fd_sc_hd__or4bb_1
*CAP
1 *4118:B 7.97078e-05
2 *4114:X 7.97078e-05
3 *4118:B *4114:C_N 1.98839e-05
4 *4108:A *4118:B 5.33005e-05
*RES
1 *4114:X *4118:B 19.5464 
*END

*D_NET *115 0.00186471
*CONN
*I *4118:C I *D sky130_fd_sc_hd__nor4_1
*I *4115:X O *D sky130_fd_sc_hd__or4b_1
*CAP
1 *4118:C 0.000442112
2 *4115:X 0.000442112
3 *4118:C *4111:D_N 0.00054892
4 *4118:C *4114:C_N 0.000164994
5 *4118:C *134:24 0.000111488
6 *4118:C *480:32 0.00015508
*RES
1 *4115:X *4118:C 37.3143 
*END

*D_NET *116 0.000724409
*CONN
*I *4121:B I *D sky130_fd_sc_hd__or4_1
*I *4116:X O *D sky130_fd_sc_hd__or4bb_1
*CAP
1 *4121:B 0.000273394
2 *4116:X 0.000273394
3 *4121:B *4111:B 4.37999e-05
4 *4121:B *4114:D_N 0.000103275
5 *4121:B *4121:C 0
6 *4121:B *282:43 3.05446e-05
7 *4551:A *4121:B 0
*RES
1 *4116:X *4121:B 32.3321 
*END

*D_NET *117 0.0024997
*CONN
*I *4118:D I *D sky130_fd_sc_hd__nor4_1
*I *4117:X O *D sky130_fd_sc_hd__or4bb_1
*CAP
1 *4118:D 0.000577615
2 *4117:X 0.000577615
3 *4118:D *4104:A 9.60875e-05
4 *4118:D *4104:C 5.62995e-05
5 *4118:D *4114:C_N 0.000172735
6 *4118:D *4114:D_N 5.52238e-05
7 *4118:D *4117:B 0.000103253
8 *4118:D *4119:D_N 0
9 *4118:D *118:10 5.30637e-06
10 *4118:D *276:39 6.27493e-05
11 *4108:A *4118:D 8.3725e-05
12 *4113:D *4118:D 5.33005e-05
13 *108:12 *4118:D 0.000655788
*RES
1 *4117:X *4118:D 41.1 
*END

*D_NET *118 0.00150062
*CONN
*I *4240:B I *D sky130_fd_sc_hd__or2_1
*I *4122:A2 I *D sky130_fd_sc_hd__a21bo_2
*I *4118:Y O *D sky130_fd_sc_hd__nor4_1
*CAP
1 *4240:B 0.000249794
2 *4122:A2 0
3 *4118:Y 0.000325573
4 *118:10 0.000575367
5 *4240:B *4122:A1 2.28499e-05
6 *4240:B *4122:B1_N 0.000112286
7 *4240:B *122:8 5.76121e-05
8 *4118:D *118:10 5.30637e-06
9 *108:12 *118:10 0.000151834
*RES
1 *4118:Y *118:10 15.6214 
2 *118:10 *4122:A2 9.3 
3 *118:10 *4240:B 13.9607 
*END

*D_NET *119 0.00112197
*CONN
*I *4121:C I *D sky130_fd_sc_hd__or4_1
*I *4119:X O *D sky130_fd_sc_hd__or4bb_1
*CAP
1 *4121:C 0.000326765
2 *4119:X 0.000326765
3 *4121:C *4104:A 0
4 *4121:C *4108:C 0.000227931
5 *4121:C *4114:D_N 0
6 *4121:C *4121:D 0.000230475
7 *4108:D *4121:C 1.00375e-05
8 *4113:C *4121:C 0
9 *4121:B *4121:C 0
*RES
1 *4119:X *4121:C 34.2607 
*END

*D_NET *120 0.00199088
*CONN
*I *4121:D I *D sky130_fd_sc_hd__or4_1
*I *4120:X O *D sky130_fd_sc_hd__or4b_1
*CAP
1 *4121:D 0.000501962
2 *4120:X 0.000501962
3 *4121:D *4107:A 5.52238e-05
4 *4121:D *4107:D_N 0.000207792
5 *4121:D *4108:C 1.74352e-05
6 *4121:D *4120:C 9.78909e-05
7 *4121:D *140:100 0
8 *4121:D *283:58 5.72784e-05
9 *4121:D *283:75 4.29414e-05
10 *4121:D *284:49 6.57815e-05
11 *4121:D *285:38 9.25014e-06
12 *4108:D *4121:D 0.000202891
13 *4121:C *4121:D 0.000230475
*RES
1 *4120:X *4121:D 40.6 
*END

*D_NET *121 0.00230335
*CONN
*I *4122:B1_N I *D sky130_fd_sc_hd__a21bo_2
*I *4121:X O *D sky130_fd_sc_hd__or4_1
*CAP
1 *4122:B1_N 0.000744018
2 *4121:X 0.000744018
3 *4122:B1_N *4109:A 8.15738e-05
4 *4122:B1_N *4122:A1 8.50152e-05
5 *4122:B1_N *4248:A2 3.47797e-05
6 *4122:B1_N *4249:B1 5.52302e-05
7 *4122:B1_N *4581:A 0.000291793
8 *4122:B1_N *140:38 0
9 *4122:B1_N *140:51 0
10 *4122:B1_N *510:6 9.90431e-05
11 *4122:B1_N *510:14 9.69119e-06
12 *4121:A *4122:B1_N 4.58976e-05
13 *4240:B *4122:B1_N 0.000112286
*RES
1 *4121:X *4122:B1_N 41.4482 
*END

*D_NET *122 0.0116205
*CONN
*I *4232:D I *D sky130_fd_sc_hd__and4_1
*I *4231:A3 I *D sky130_fd_sc_hd__a31o_1
*I *4209:B I *D sky130_fd_sc_hd__nand2_2
*I *4208:B I *D sky130_fd_sc_hd__and2_2
*I *4123:B I *D sky130_fd_sc_hd__nand2_1
*I *4143:A3 I *D sky130_fd_sc_hd__a31o_1
*I *4124:B1 I *D sky130_fd_sc_hd__a221o_1
*I *4144:B I *D sky130_fd_sc_hd__nor2_4
*I *4122:X O *D sky130_fd_sc_hd__a21bo_2
*CAP
1 *4232:D 4.65315e-05
2 *4231:A3 0.000789685
3 *4209:B 2.03441e-05
4 *4208:B 0.000184511
5 *4123:B 2.23854e-05
6 *4143:A3 0.000234588
7 *4124:B1 0
8 *4144:B 0.000246386
9 *4122:X 0.0003137
10 *122:80 0.00117015
11 *122:67 0.00051753
12 *122:54 0.000557201
13 *122:45 0.000535551
14 *122:32 0.00104294
15 *122:12 0.000387961
16 *122:8 0.000959908
17 *4143:A3 *4243:A 1.88048e-05
18 *4143:A3 *263:10 0
19 *4143:A3 *263:63 0
20 *4143:A3 *263:65 0
21 *4143:A3 *356:12 1.76135e-05
22 *4143:A3 *356:65 5.84171e-05
23 *4143:A3 *356:78 9.22701e-05
24 *4144:B *4124:B2 2.85551e-05
25 *4144:B *140:8 2.89016e-05
26 *4208:B *4227:C 0
27 *4208:B *4559:A 3.34295e-05
28 *4208:B *178:10 0
29 *4208:B *180:46 0
30 *4208:B *488:12 0
31 *4208:B *488:47 0
32 *4209:B *488:121 5.7661e-06
33 *4231:A3 *4230:A 0.000227539
34 *4231:A3 *4230:C 2.26217e-05
35 *4231:A3 *4233:B 2.87555e-06
36 *4231:A3 *4233:C 6.97494e-05
37 *4231:A3 *4374:CLK 1.10772e-05
38 *4231:A3 *488:47 1.92789e-05
39 *4231:A3 *488:56 3.57366e-05
40 *4232:D *4140:C 0
41 *4232:D *4232:C 6.91157e-05
42 *122:8 *4240:A 2.90075e-05
43 *122:8 *4241:A1 2.59355e-05
44 *122:8 *4241:A2 1.39726e-05
45 *122:8 *4241:B1 0.00014183
46 *122:12 *4124:B2 0.000315894
47 *122:12 *4378:D 6.48957e-05
48 *122:12 *450:21 0
49 *122:32 *4124:B2 0.000209491
50 *122:32 *134:14 6.63569e-05
51 *122:32 *151:10 0
52 *122:32 *259:164 0.000142856
53 *122:32 *263:8 9.90431e-05
54 *122:32 *263:10 2.84494e-05
55 *122:32 *263:12 9.24299e-05
56 *122:32 *263:14 0.000114121
57 *122:32 *263:18 9.32406e-05
58 *122:32 *356:12 0
59 *122:32 *450:21 0
60 *122:45 *4123:A 5.33005e-05
61 *122:45 *259:164 0.000298875
62 *122:45 *290:16 0.000100616
63 *122:45 *356:8 0.000142856
64 *122:54 *290:16 7.47252e-05
65 *122:54 *488:8 9.92409e-05
66 *122:67 *488:8 0.000145019
67 *122:67 *488:121 5.62995e-05
68 *122:80 *4213:B 0.000137983
69 *122:80 *4232:C 0.000720896
70 *122:80 *4463:A 0
71 *122:80 *178:69 6.05161e-06
72 *122:80 *266:79 0.000283691
73 *122:80 *290:16 1.02821e-05
74 *122:80 *488:121 4.14279e-05
75 *4144:A *4144:B 5.71472e-05
76 *4240:B *122:8 5.76121e-05
77 *4374:D *4231:A3 9.53138e-05
78 *100:338 *4144:B 3.05446e-05
*RES
1 *4122:X *122:8 19.2643 
2 *122:8 *122:12 8.57143 
3 *122:12 *4144:B 13.55 
4 *122:12 *4124:B1 9.3 
5 *122:8 *122:32 16.6071 
6 *122:32 *4143:A3 22.675 
7 *122:32 *122:45 6.28571 
8 *122:45 *4123:B 9.72857 
9 *122:45 *122:54 3.82143 
10 *122:54 *4208:B 21.4607 
11 *122:54 *122:67 3.41071 
12 *122:67 *4209:B 9.72857 
13 *122:67 *122:80 14.0179 
14 *122:80 *4231:A3 24.1036 
15 *122:80 *4232:D 14.8357 
*END

*D_NET *123 0.00151743
*CONN
*I *4136:C I *D sky130_fd_sc_hd__or4_4
*I *4123:Y O *D sky130_fd_sc_hd__nand2_1
*CAP
1 *4136:C 0.000364041
2 *4123:Y 0.000364041
3 *4136:C *526:DIODE 5.52302e-05
4 *4136:C *4134:B 0.000115045
5 *4136:C *4136:A 0.000201651
6 *4136:C *4227:C 0
7 *4136:C *134:64 3.97794e-05
8 *4136:C *180:19 0
9 *4227:A *4136:C 0.000202128
10 *97:12 *4136:C 0.000175519
*RES
1 *4123:Y *4136:C 35.8946 
*END

*D_NET *124 0.000492502
*CONN
*I *4507:A I *D sky130_fd_sc_hd__dlygate4sd3_1
*I *4125:X O *D sky130_fd_sc_hd__or4b_1
*CAP
1 *4507:A 0.000110952
2 *4125:X 0.000110952
3 *4507:A *4125:B 0
4 *4507:A *4337:B1 4.87854e-05
5 *4507:A *225:10 0
6 *4507:A *265:12 0.000125724
7 *4507:A *367:14 9.60875e-05
*RES
1 *4125:X *4507:A 30.1893 
*END

*D_NET *125 0.000204061
*CONN
*I *4132:B1 I *D sky130_fd_sc_hd__a31o_1
*I *4126:X O *D sky130_fd_sc_hd__and3_1
*CAP
1 *4132:B1 6.5479e-05
2 *4126:X 6.5479e-05
3 *4132:B1 *4132:A1 5.33334e-05
4 *4132:B1 *4132:A2 1.97695e-05
5 *4132:B1 *4146:C 0
*RES
1 *4126:X *4132:B1 19.975 
*END

*D_NET *126 0.000220266
*CONN
*I *4131:A I *D sky130_fd_sc_hd__nor4_4
*I *4127:X O *D sky130_fd_sc_hd__or4b_1
*CAP
1 *4131:A 9.21778e-05
2 *4127:X 9.21778e-05
3 *4131:A *4305:B 0
4 *4131:A *144:24 1.02504e-05
5 *4131:A *238:14 2.56601e-05
*RES
1 *4127:X *4131:A 29.2429 
*END

*D_NET *127 0.0015697
*CONN
*I *4131:B I *D sky130_fd_sc_hd__nor4_4
*I *4128:Y O *D sky130_fd_sc_hd__nand2_1
*CAP
1 *4131:B 0.000403893
2 *4128:Y 0.000403893
3 *4131:B *4131:C 0.000722149
4 *4131:B *130:10 3.97657e-05
*RES
1 *4128:Y *4131:B 27.2607 
*END

*D_NET *128 0.00235524
*CONN
*I *4131:C I *D sky130_fd_sc_hd__nor4_4
*I *4129:X O *D sky130_fd_sc_hd__or4_1
*CAP
1 *4131:C 0.00049037
2 *4129:X 0.00049037
3 *4131:C *4128:A 0.000268403
4 *4131:C *4128:B 0.000118592
5 *4131:C *4129:A 0.000230475
6 *4131:C *130:10 3.4879e-05
7 *4131:B *4131:C 0.000722149
*RES
1 *4129:X *4131:C 31.9036 
*END

*D_NET *129 0.00100959
*CONN
*I *4131:D I *D sky130_fd_sc_hd__nor4_4
*I *4130:X O *D sky130_fd_sc_hd__or4bb_1
*CAP
1 *4131:D 0.000330993
2 *4130:X 0.000330993
3 *4131:D *4335:B1 9.90431e-05
4 *4131:D *4491:A 0.000199698
5 *4131:D *350:14 4.88637e-05
*RES
1 *4130:X *4131:D 33.7429 
*END

*D_NET *130 0.0101582
*CONN
*I *4132:A3 I *D sky130_fd_sc_hd__a31o_1
*I *4289:B I *D sky130_fd_sc_hd__and3_1
*I *4288:A1 I *D sky130_fd_sc_hd__a21o_1
*I *4169:B I *D sky130_fd_sc_hd__nand2_2
*I *4191:A2 I *D sky130_fd_sc_hd__a31o_1
*I *4150:B I *D sky130_fd_sc_hd__nor2_4
*I *4131:Y O *D sky130_fd_sc_hd__nor4_4
*CAP
1 *4132:A3 0.000223387
2 *4289:B 0
3 *4288:A1 0
4 *4169:B 0.000167591
5 *4191:A2 4.09776e-05
6 *4150:B 0
7 *4131:Y 0.000645077
8 *130:68 0.000637234
9 *130:55 0.00116819
10 *130:29 0.000728358
11 *130:16 0.000849477
12 *130:10 0.00172911
13 *4132:A3 *4132:A1 5.52238e-05
14 *4132:A3 *4132:A2 2.27416e-05
15 *4132:A3 *4285:A2 4.66203e-05
16 *4132:A3 *4289:A 5.31541e-05
17 *4132:A3 *4300:B 0
18 *4132:A3 *228:8 5.80706e-06
19 *4132:A3 *367:14 4.25427e-05
20 *4169:B *4188:A1 7.3237e-05
21 *4169:B *4188:B2 0.000103275
22 *4169:B *4189:B1 9.71197e-05
23 *4169:B *133:55 0.000200413
24 *4191:A2 *4189:B1 0.0001399
25 *4191:A2 *4191:B1 2.14658e-05
26 *4191:A2 *360:20 5.71472e-05
27 *130:10 *238:14 0.000227539
28 *130:16 *144:10 0.000306082
29 *130:16 *144:18 0.000223677
30 *130:16 *264:10 0.000308359
31 *130:16 *264:12 0.000217478
32 *130:16 *264:14 3.34366e-05
33 *130:16 *264:82 9.78605e-05
34 *130:16 *264:102 0.000166262
35 *130:16 *264:117 0.000190155
36 *130:29 *549:DIODE 0.000122091
37 *130:29 *4149:A 2.58997e-05
38 *130:29 *4169:A 3.34295e-05
39 *130:29 *335:18 7.83366e-05
40 *130:29 *360:10 0.000154633
41 *130:29 *360:20 0
42 *130:55 *4511:A 6.78055e-06
43 *130:68 *4125:C 1.98839e-05
44 *130:68 *4288:B1 9.77274e-05
45 *130:68 *4289:A 6.75007e-05
46 *130:68 *228:8 9.24491e-05
47 *4131:B *130:10 3.97657e-05
48 *4131:C *130:10 3.4879e-05
49 *4404:D *130:55 9.81617e-05
50 *4499:A *130:68 0.000393629
51 *100:90 *130:16 4.1331e-06
52 *100:106 *130:16 1.00375e-05
53 *100:127 *4132:A3 0
*RES
1 *4131:Y *130:10 19.0143 
2 *130:10 *130:16 21.875 
3 *130:16 *4150:B 9.3 
4 *130:16 *130:29 19.4821 
5 *130:29 *4191:A2 10.6571 
6 *130:29 *4169:B 23.0321 
7 *130:10 *130:55 9.30357 
8 *130:55 *4288:A1 9.3 
9 *130:55 *130:68 13.4643 
10 *130:68 *4289:B 13.8 
11 *130:68 *4132:A3 18.4429 
*END

*D_NET *131 0.00292627
*CONN
*I *4134:C I *D sky130_fd_sc_hd__or3_1
*I *4136:D I *D sky130_fd_sc_hd__or4_4
*I *4145:A2 I *D sky130_fd_sc_hd__a22o_1
*I *4133:X O *D sky130_fd_sc_hd__and2b_1
*CAP
1 *4134:C 0
2 *4136:D 0
3 *4145:A2 0.000160111
4 *4133:X 0.000317452
5 *131:14 0.000175087
6 *131:12 0.000332427
7 *4145:A2 *4136:A 0.000183713
8 *4145:A2 *4145:A1 5.33005e-05
9 *4145:A2 *4380:CLK 0.00018077
10 *4145:A2 *356:18 0.000157409
11 *4145:A2 *356:49 2.14757e-05
12 *4145:A2 *373:257 0.000636581
13 *131:12 *4135:B1 0
14 *131:12 *4240:A 0.000232399
15 *131:12 *259:160 0.000333493
16 *131:12 *460:12 4.34273e-05
17 *131:12 *488:20 4.46186e-06
18 *131:14 *4136:A 4.08637e-05
19 *131:14 *373:257 5.33005e-05
20 *97:12 *131:12 0
21 *97:22 *131:12 0
*RES
1 *4133:X *131:12 24.8536 
2 *131:12 *131:14 0.535714 
3 *131:14 *4145:A2 15.9964 
4 *131:14 *4136:D 9.3 
5 *131:12 *4134:C 9.3 
*END

*D_NET *132 0.000327837
*CONN
*I *4135:B1 I *D sky130_fd_sc_hd__a211oi_4
*I *4134:X O *D sky130_fd_sc_hd__or3_1
*CAP
1 *4135:B1 6.01549e-05
2 *4134:X 6.01549e-05
3 *4135:B1 *460:12 8.00806e-05
4 *97:12 *4135:B1 0.000127446
5 *131:12 *4135:B1 0
*RES
1 *4134:X *4135:B1 19.9429 
*END

*D_NET *133 0.0249219
*CONN
*I *4157:B I *D sky130_fd_sc_hd__or2_1
*I *4154:A2 I *D sky130_fd_sc_hd__o21ba_1
*I *4153:A2 I *D sky130_fd_sc_hd__a21o_1
*I *4161:A2 I *D sky130_fd_sc_hd__a21o_1
*I *4159:B I *D sky130_fd_sc_hd__or2_1
*I *4155:B I *D sky130_fd_sc_hd__or2_1
*I *4163:A2 I *D sky130_fd_sc_hd__a21o_1
*I *4188:A2 I *D sky130_fd_sc_hd__a22o_1
*I *4148:B I *D sky130_fd_sc_hd__and2_2
*I *4149:B I *D sky130_fd_sc_hd__nand2_2
*I *4165:A2 I *D sky130_fd_sc_hd__a21o_1
*I *4167:A2 I *D sky130_fd_sc_hd__a21o_1
*I *4135:Y O *D sky130_fd_sc_hd__a211oi_4
*CAP
1 *4157:B 6.56542e-05
2 *4154:A2 2.23854e-05
3 *4153:A2 0.00048098
4 *4161:A2 0
5 *4159:B 0
6 *4155:B 0.000352134
7 *4163:A2 0
8 *4188:A2 0
9 *4148:B 0.000202702
10 *4149:B 1.99857e-05
11 *4165:A2 0
12 *4167:A2 0.000281216
13 *4135:Y 0.000551814
14 *133:166 0.00030186
15 *133:147 0.00112195
16 *133:134 0.00045894
17 *133:114 0.00103915
18 *133:108 0.00122319
19 *133:93 0.00155764
20 *133:55 0.000303285
21 *133:51 0.0012054
22 *133:42 0.00169503
23 *133:23 0.00165169
24 *133:10 0.000861233
25 *4148:B *4148:A 5.52302e-05
26 *4148:B *4149:A 1.76135e-05
27 *4148:B *4188:B2 4.1331e-06
28 *4148:B *4583:A 0
29 *4148:B *4584:A 0
30 *4148:B *335:18 0.000382325
31 *4148:B *360:10 0.000318107
32 *4148:B *360:62 0.000135756
33 *4149:B *4149:A 1.04232e-05
34 *4153:A2 *4154:B1_N 0.000304394
35 *4153:A2 *4158:A1 0.000187275
36 *4153:A2 *4158:B1 5.52238e-05
37 *4153:A2 *4561:A 0.000244838
38 *4153:A2 *4562:A 6.7491e-05
39 *4153:A2 *134:81 4.92678e-05
40 *4153:A2 *267:101 4.18442e-05
41 *4153:A2 *301:27 5.49489e-05
42 *4154:A2 *4564:A 0
43 *4155:B *4155:A 5.33005e-05
44 *4155:B *4156:C1 3.0987e-05
45 *4155:B *4159:A 0.000225749
46 *4155:B *4160:C1 0.000107503
47 *4155:B *4339:D 4.46186e-06
48 *4155:B *4567:A 0.000122133
49 *4155:B *4584:A 0.00016174
50 *4155:B *4612:A 0.000362261
51 *4155:B *265:130 4.43256e-05
52 *4157:B *4564:A 7.32955e-05
53 *4167:A2 *4100:A 0
54 *4167:A2 *4206:B 8.04913e-05
55 *4167:A2 *4521:A 0
56 *4167:A2 *151:10 0
57 *133:10 *4206:B 0.000130283
58 *133:10 *4226:A2 3.07555e-05
59 *133:10 *4394:D 0
60 *133:10 *151:10 0
61 *133:10 *180:10 7.22614e-05
62 *133:10 *180:19 2.1527e-05
63 *133:10 *460:109 8.25843e-06
64 *133:23 *4165:A1 3.18676e-05
65 *133:42 *4165:A1 9.89625e-05
66 *133:42 *4187:A1 0
67 *133:42 *4189:A2 3.17148e-05
68 *133:42 *4190:C 5.33005e-05
69 *133:42 *4191:A3 0.000125053
70 *133:42 *4284:B1 0
71 *133:42 *4357:D 0.00014493
72 *133:42 *4364:D 7.01199e-06
73 *133:42 *4365:CLK 0.000154194
74 *133:42 *143:74 2.89114e-05
75 *133:42 *143:88 0.000215102
76 *133:42 *168:6 1.49335e-05
77 *133:42 *264:117 5.52302e-05
78 *133:42 *264:119 5.52238e-05
79 *133:42 *266:33 0.000130494
80 *133:42 *266:46 2.32517e-05
81 *133:42 *308:10 0.000186662
82 *133:42 *333:8 9.80173e-05
83 *133:42 *373:66 5.33786e-05
84 *133:42 *373:132 3.72174e-05
85 *133:42 *373:145 3.17067e-05
86 *133:51 *4149:A 2.28499e-05
87 *133:51 *4169:A 0.000186669
88 *133:51 *143:14 1.92175e-05
89 *133:51 *333:8 0.000318101
90 *133:55 *4149:A 9.42015e-05
91 *133:55 *4188:B2 1.69021e-05
92 *133:55 *143:74 0
93 *133:93 *4171:B 0.000101545
94 *133:93 *4172:A1 2.14757e-05
95 *133:93 *4172:C1 5.74499e-06
96 *133:93 *4173:A0 0
97 *133:93 *4176:A1 0.00012501
98 *133:93 *143:14 0.000281354
99 *133:93 *153:8 5.75147e-05
100 *133:93 *259:64 0.000221132
101 *133:93 *333:8 0.000140933
102 *133:93 *346:10 0
103 *133:93 *373:48 0.000393899
104 *133:93 *499:12 0.000125731
105 *133:108 *4178:B1 4.44686e-05
106 *133:108 *4353:D 9.71197e-05
107 *133:108 *259:64 8.68639e-05
108 *133:108 *499:12 0.000293269
109 *133:114 *4175:B1 3.18676e-05
110 *133:114 *4353:D 8.68569e-05
111 *133:114 *4600:A 1.02504e-05
112 *133:114 *4601:A 0.000161878
113 *133:114 *495:12 0
114 *133:134 *4577:A 5.80706e-06
115 *133:134 *495:12 0
116 *133:147 *4161:A1 0.000384988
117 *133:147 *4345:CLK 0.000216304
118 *133:147 *4530:A 6.30292e-05
119 *133:147 *4577:A 0
120 *133:147 *4613:A 8.9163e-05
121 *133:147 *4615:A 0
122 *133:147 *467:8 2.16719e-05
123 *133:166 *4154:B1_N 0.000387411
124 *133:166 *4564:A 7.32955e-05
125 *537:DIODE *4153:A2 4.60235e-05
126 *4153:A1 *4153:A2 0.000133738
127 *4153:B1 *4153:A2 3.41517e-06
128 *4163:B1 *133:108 0.000196353
129 *4165:B1 *133:23 9.90431e-05
130 *4165:B1 *133:42 0.000118456
131 *4169:B *133:55 0.000200413
132 *4211:B *133:10 2.26424e-05
133 *4365:D *133:42 7.67529e-05
134 *4569:A *133:114 0.00030926
135 *4580:A *133:42 3.92757e-05
136 *4585:A *133:166 9.80173e-05
137 *3:19 *133:10 1.94945e-05
138 *97:12 *133:10 4.64287e-05
139 *97:22 *133:10 0.000478026
140 *100:206 *133:114 0.000154078
141 *100:215 *133:114 3.36686e-05
142 *100:215 *133:134 1.30764e-05
143 *100:215 *133:147 1.02504e-05
144 *100:245 *133:147 0.000165269
145 *100:295 *133:42 1.39726e-05
146 *100:328 *133:10 2.61337e-05
*RES
1 *4135:Y *133:10 26.3982 
2 *133:10 *4167:A2 18.7821 
3 *133:10 *133:23 5.44643 
4 *133:23 *4165:A2 9.3 
5 *133:23 *133:42 37.1786 
6 *133:42 *4149:B 9.72857 
7 *133:42 *133:51 3 
8 *133:51 *133:55 7.66071 
9 *133:55 *4148:B 20.4071 
10 *133:55 *4188:A2 13.8 
11 *133:51 *133:93 23.6786 
12 *133:93 *4163:A2 13.8 
13 *133:93 *133:108 19.5893 
14 *133:108 *133:114 18.7143 
15 *133:114 *4155:B 29.8 
16 *133:114 *4159:B 9.3 
17 *133:108 *133:134 0.732143 
18 *133:134 *4161:A2 13.8 
19 *133:134 *133:147 15.5893 
20 *133:147 *4153:A2 29.4429 
21 *133:147 *133:166 5.05357 
22 *133:166 *4154:A2 9.72857 
23 *133:166 *4157:B 10.6571 
*END

*D_NET *134 0.0342789
*CONN
*I *539:DIODE I *D sky130_fd_sc_hd__diode_2
*I *4158:A2 I *D sky130_fd_sc_hd__o211a_1
*I *544:DIODE I *D sky130_fd_sc_hd__diode_2
*I *4164:A2 I *D sky130_fd_sc_hd__a21o_1
*I *4162:A2 I *D sky130_fd_sc_hd__a21o_1
*I *4160:A2 I *D sky130_fd_sc_hd__o211a_1
*I *542:DIODE I *D sky130_fd_sc_hd__diode_2
*I *540:DIODE I *D sky130_fd_sc_hd__diode_2
*I *4156:A2 I *D sky130_fd_sc_hd__o211a_1
*I *538:DIODE I *D sky130_fd_sc_hd__diode_2
*I *4139:A2 I *D sky130_fd_sc_hd__a221o_1
*I *527:DIODE I *D sky130_fd_sc_hd__diode_2
*I *526:DIODE I *D sky130_fd_sc_hd__diode_2
*I *4166:A2 I *D sky130_fd_sc_hd__a21o_1
*I *546:DIODE I *D sky130_fd_sc_hd__diode_2
*I *548:DIODE I *D sky130_fd_sc_hd__diode_2
*I *4168:A2 I *D sky130_fd_sc_hd__a21o_1
*I *4136:X O *D sky130_fd_sc_hd__or4_4
*CAP
1 *539:DIODE 0.000248956
2 *4158:A2 0
3 *544:DIODE 0
4 *4164:A2 0
5 *4162:A2 0
6 *4160:A2 1.62969e-05
7 *542:DIODE 0
8 *540:DIODE 0
9 *4156:A2 0.000280686
10 *538:DIODE 0.000242418
11 *4139:A2 8.04045e-06
12 *527:DIODE 0.000134293
13 *526:DIODE 7.18689e-05
14 *4166:A2 6.97481e-05
15 *546:DIODE 9.72258e-05
16 *548:DIODE 0
17 *4168:A2 7.07478e-05
18 *4136:X 0
19 *134:207 0.00034908
20 *134:127 0.000293545
21 *134:125 0.00061999
22 *134:119 0.000667859
23 *134:115 0.000427593
24 *134:111 0.000462414
25 *134:107 0.000680459
26 *134:97 0.000672047
27 *134:95 0.000300049
28 *134:93 0.00090996
29 *134:83 0.000913554
30 *134:81 0.00357825
31 *134:64 0.00421274
32 *134:40 0.000793441
33 *134:24 0.0016119
34 *134:14 0.00336699
35 *134:4 0.00176199
36 *527:DIODE *4125:A 4.78056e-05
37 *527:DIODE *4137:B 1.74352e-05
38 *527:DIODE *4139:A1 1.02504e-05
39 *527:DIODE *4294:B 0.00014285
40 *527:DIODE *4297:B 0
41 *527:DIODE *372:6 0.00010096
42 *538:DIODE *4285:C1 1.45268e-05
43 *538:DIODE *4337:B2 4.70078e-05
44 *538:DIODE *4418:D 5.52238e-05
45 *539:DIODE *4345:CLK 5.80706e-06
46 *539:DIODE *495:12 4.97918e-05
47 *546:DIODE *4166:B1 7.77751e-05
48 *4156:A2 *4156:A1 4.51611e-05
49 *4156:A2 *4156:B1 2.36784e-05
50 *4160:A2 *4160:B1 1.00733e-05
51 *4166:A2 *4166:A1 2.89114e-05
52 *4166:A2 *4166:B1 5.52302e-05
53 *4166:A2 *511:10 2.84494e-05
54 *4168:A2 *4168:B1 0.00010096
55 *134:14 *151:10 0
56 *134:14 *356:12 5.10822e-05
57 *134:24 *4103:A 6.90783e-05
58 *134:24 *4111:D_N 9.57064e-05
59 *134:24 *4114:C_N 0
60 *134:24 *4116:C_N 0
61 *134:24 *4168:B1 0.000313834
62 *134:24 *4255:A 0
63 *134:24 *4383:CLK 0.000183674
64 *134:24 *200:23 0.000349939
65 *134:24 *200:25 0.000457939
66 *134:24 *200:27 0.000161637
67 *134:24 *200:29 0.000213635
68 *134:24 *200:37 0.000577587
69 *134:24 *205:8 0
70 *134:24 *260:75 5.33882e-05
71 *134:24 *281:23 0
72 *134:24 *385:12 0
73 *134:24 *480:32 0
74 *134:40 *4103:A 6.81083e-05
75 *134:40 *4244:C 7.48356e-05
76 *134:40 *140:66 5.33786e-05
77 *134:40 *140:181 0.000123762
78 *134:40 *200:23 5.53499e-05
79 *134:40 *273:10 0
80 *134:40 *273:12 0
81 *134:40 *276:23 0.000399238
82 *134:40 *276:33 0
83 *134:64 *4136:A 1.74352e-05
84 *134:64 *373:257 0.000394975
85 *134:81 *4157:A 5.52238e-05
86 *134:81 *4224:A2 4.87854e-05
87 *134:81 *4361:CLK 9.76689e-05
88 *134:81 *4369:D 7.01199e-06
89 *134:81 *4371:CLK 1.92789e-05
90 *134:81 *4426:A 2.27416e-05
91 *134:81 *4561:A 5.61645e-05
92 *134:81 *4562:A 0.0001317
93 *134:81 *180:38 0.00021529
94 *134:81 *266:8 0.000149866
95 *134:81 *301:27 0.000104584
96 *134:81 *455:6 5.04705e-05
97 *134:93 *4158:C1 3.92757e-05
98 *134:93 *4345:CLK 9.03031e-05
99 *134:93 *4613:A 0.000293124
100 *134:95 *4348:D 0
101 *134:97 *4162:A1 0.000291851
102 *134:97 *4164:B1 3.03325e-05
103 *134:107 *4160:A1 0
104 *134:107 *4164:B1 5.19454e-05
105 *134:107 *4567:A 0
106 *134:107 *373:12 0.000248164
107 *134:111 *373:12 5.52302e-05
108 *134:115 *4352:CLK 0.000221163
109 *134:115 *265:93 0.000227198
110 *134:115 *339:18 0.000755298
111 *134:119 *4451:A 9.69119e-06
112 *134:119 *265:93 0.000100831
113 *134:119 *335:55 0
114 *134:119 *339:18 0.00038501
115 *134:119 *513:16 0.000126439
116 *134:125 *4139:A1 5.59013e-05
117 *134:125 *4139:B1 7.34455e-06
118 *134:125 *4418:D 0.000175526
119 *134:125 *4451:A 9.41642e-05
120 *134:125 *335:55 0.000140368
121 *134:127 *4139:A1 0.000341488
122 *134:127 *4139:B1 6.16744e-05
123 *134:207 *4158:B1 0.000128154
124 *134:207 *4158:C1 5.39648e-05
125 *134:207 *4345:CLK 0.000121671
126 led[3] *134:111 8.18868e-05
127 led[4] *134:93 0.000122258
128 led[4] *134:95 2.06178e-05
129 *528:DIODE *4139:A2 1.46576e-05
130 *574:DIODE *134:127 0
131 *4113:A *134:24 0
132 *4118:C *134:24 0.000111488
133 *4135:A2 *134:14 0.00084612
134 *4136:C *526:DIODE 5.52302e-05
135 *4136:C *134:64 3.97794e-05
136 *4153:A2 *134:81 4.92678e-05
137 *4361:D *134:81 3.68337e-05
138 *4371:D *134:81 2.53274e-05
139 *4379:D *134:40 0
140 *4452:A *134:127 0
141 *4565:A *539:DIODE 6.05161e-06
142 *4586:A *4156:A2 7.02611e-05
143 *4586:A *134:125 6.87574e-05
144 *100:206 *134:115 0.000160517
145 *103:10 *134:24 0
146 *103:12 *134:24 0
147 *122:32 *134:14 6.63569e-05
*RES
1 *4136:X *134:4 9.3 
2 *134:4 *134:14 30.9643 
3 *134:14 *134:24 39.5179 
4 *134:24 *4168:A2 10.9786 
5 *134:24 *548:DIODE 9.3 
6 *134:14 *134:40 15.6071 
7 *134:40 *546:DIODE 15.1571 
8 *134:40 *4166:A2 15.3714 
9 *134:4 *134:64 7.92857 
10 *134:64 *526:DIODE 10.2464 
11 *134:64 *134:81 46.8214 
12 *134:81 *134:83 4.5 
13 *134:83 *134:93 20.8393 
14 *134:93 *134:95 1.64286 
15 *134:95 *134:97 4.98214 
16 *134:97 *134:107 13.8571 
17 *134:107 *134:111 3.73214 
18 *134:111 *134:115 14.3393 
19 *134:115 *134:119 9.48214 
20 *134:119 *134:125 9.23214 
21 *134:125 *134:127 4.375 
22 *134:127 *527:DIODE 17.1036 
23 *134:127 *4139:A2 13.9473 
24 *134:125 *538:DIODE 16.8 
25 *134:119 *4156:A2 13.3357 
26 *134:115 *540:DIODE 13.8 
27 *134:111 *542:DIODE 9.3 
28 *134:107 *4160:A2 9.72857 
29 *134:97 *4162:A2 13.8 
30 *134:95 *4164:A2 13.8 
31 *134:93 *544:DIODE 13.8 
32 *134:83 *134:207 3.16071 
33 *134:207 *4158:A2 13.8 
34 *134:207 *539:DIODE 17.5143 
*END

*D_NET *135 0.00149704
*CONN
*I *4138:A I *D sky130_fd_sc_hd__inv_2
*I *4457:A I *D sky130_fd_sc_hd__dlygate4sd3_1
*I *4137:X O *D sky130_fd_sc_hd__or4b_1
*CAP
1 *4138:A 0.000203328
2 *4457:A 0
3 *4137:X 0.000161538
4 *135:8 0.000364866
5 *4138:A *4139:B1 7.07908e-05
6 *4138:A *4337:B2 0.000202128
7 *4138:A *225:10 0
8 *4138:A *362:47 0
9 *135:8 *4139:B1 1.59782e-05
10 *135:8 *4139:B2 6.07328e-05
11 *135:8 *4297:B 0.000173083
12 *135:8 *4298:B 0.000123352
13 *135:8 *225:10 0
14 *135:8 *372:21 0.000121248
*RES
1 *4137:X *135:8 18.175 
2 *135:8 *4457:A 13.8 
3 *135:8 *4138:A 18.7821 
*END

*D_NET *136 0.00139319
*CONN
*I *4139:B1 I *D sky130_fd_sc_hd__a221o_1
*I *4138:Y O *D sky130_fd_sc_hd__inv_2
*CAP
1 *4139:B1 0.000248163
2 *4138:Y 0.000248163
3 *4139:B1 *4139:A1 0.000227021
4 *4139:B1 *4139:B2 0.000176234
5 *4139:B1 *4337:B2 6.5185e-05
6 *4139:B1 *4418:D 0.000175512
7 *4139:B1 *4451:A 9.71197e-05
8 *4138:A *4139:B1 7.07908e-05
9 *134:125 *4139:B1 7.34455e-06
10 *134:127 *4139:B1 6.16744e-05
11 *135:8 *4139:B1 1.59782e-05
*RES
1 *4138:Y *4139:B1 35.35 
*END

*D_NET *137 0.000141983
*CONN
*I *4450:A I *D sky130_fd_sc_hd__dlygate4sd3_1
*I *4140:X O *D sky130_fd_sc_hd__or4b_1
*CAP
1 *4450:A 3.10469e-05
2 *4140:X 3.10469e-05
3 *4450:A *4231:B1 5.71472e-05
4 *4450:A *4559:A 2.27416e-05
*RES
1 *4140:X *4450:A 19.5643 
*END

*D_NET *138 0.000864241
*CONN
*I *4152:A3 I *D sky130_fd_sc_hd__a32o_1
*I *4141:Y O *D sky130_fd_sc_hd__inv_2
*CAP
1 *4152:A3 0.000171771
2 *4141:Y 0.000171771
3 *4152:A3 *4152:A2 0.0001105
4 *4152:A3 *4152:B1 3.33174e-05
5 *4152:A3 *4379:CLK 0.000342003
6 *4152:A3 *373:276 3.4879e-05
*RES
1 *4141:Y *4152:A3 24.4929 
*END

*D_NET *139 0.000371596
*CONN
*I *4143:B1 I *D sky130_fd_sc_hd__a31o_1
*I *4142:X O *D sky130_fd_sc_hd__and3_1
*CAP
1 *4143:B1 5.12296e-05
2 *4142:X 5.12296e-05
3 *4143:B1 *4099:A 0.000111924
4 *4143:B1 *4141:A 6.26774e-06
5 *4143:B1 *151:10 1.65558e-05
6 *4143:B1 *263:65 0
7 *4143:B1 *356:78 3.34295e-05
8 *4143:B1 *373:274 0.00010096
*RES
1 *4142:X *4143:B1 29.408 
*END

*D_NET *140 0.0224667
*CONN
*I *4152:B1 I *D sky130_fd_sc_hd__a32o_1
*I *4244:C I *D sky130_fd_sc_hd__and3b_1
*I *4246:B1 I *D sky130_fd_sc_hd__o21ai_1
*I *4277:B1 I *D sky130_fd_sc_hd__o21ai_1
*I *4275:B1 I *D sky130_fd_sc_hd__o21ai_1
*I *4266:B1 I *D sky130_fd_sc_hd__o21ai_1
*I *4269:B1 I *D sky130_fd_sc_hd__o21ai_1
*I *4263:B1 I *D sky130_fd_sc_hd__o21ai_1
*I *4257:B1 I *D sky130_fd_sc_hd__o21ai_1
*I *4260:B1 I *D sky130_fd_sc_hd__o21ai_1
*I *4272:B1 I *D sky130_fd_sc_hd__o21ai_1
*I *4281:A I *D sky130_fd_sc_hd__and3_1
*I *4145:B1 I *D sky130_fd_sc_hd__a22o_1
*I *4248:B1 I *D sky130_fd_sc_hd__o21ai_1
*I *4254:B1 I *D sky130_fd_sc_hd__o21ai_1
*I *4252:B I *D sky130_fd_sc_hd__and3b_1
*I *4144:Y O *D sky130_fd_sc_hd__nor2_4
*CAP
1 *4152:B1 0.000413371
2 *4244:C 0.000238161
3 *4246:B1 2.76349e-05
4 *4277:B1 0
5 *4275:B1 0.000604605
6 *4266:B1 0
7 *4269:B1 0.000236434
8 *4263:B1 0.00021274
9 *4257:B1 0.000102314
10 *4260:B1 0
11 *4272:B1 0.000151621
12 *4281:A 0
13 *4145:B1 0
14 *4248:B1 0.000340928
15 *4254:B1 0
16 *4252:B 0.000351449
17 *4144:Y 5.20958e-05
18 *140:181 0.000357737
19 *140:132 0.000789514
20 *140:124 0.000373689
21 *140:108 0.000535608
22 *140:100 0.00084847
23 *140:89 0.000673243
24 *140:83 0.0007444
25 *140:81 0.000224057
26 *140:72 0.00102812
27 *140:66 0.00157363
28 *140:53 0.000677634
29 *140:51 0.000777683
30 *140:38 0.000887218
31 *140:18 0.00110775
32 *140:8 0.00099037
33 *4152:B1 *4152:A1 9.99989e-05
34 *4152:B1 *4152:A2 1.05613e-05
35 *4152:B1 *4152:B2 0.000125724
36 *4152:B1 *4245:A2 0.000204001
37 *4152:B1 *290:8 0.000145035
38 *4152:B1 *290:16 1.21859e-05
39 *4152:B1 *290:29 7.48111e-05
40 *4152:B1 *356:27 0
41 *4152:B1 *373:244 3.17148e-05
42 *4152:B1 *488:85 2.94103e-05
43 *4244:C *4244:A_N 1.55885e-05
44 *4244:C *4516:A 7.32272e-05
45 *4244:C *273:12 7.60306e-05
46 *4246:B1 *259:173 2.89114e-05
47 *4248:B1 *4248:A2 0.00010096
48 *4248:B1 *4581:A 0.000483375
49 *4252:B *4252:A_N 0.000207247
50 *4252:B *204:10 2.84398e-05
51 *4252:B *259:116 0.000343217
52 *4263:B1 *4264:B 0.00014699
53 *4263:B1 *4265:D 0.000130668
54 *4263:B1 *4267:A 0
55 *4263:B1 *4267:B 5.76092e-05
56 *4263:B1 *4495:A 5.30637e-06
57 *4263:B1 *207:36 8.16036e-05
58 *4269:B1 *4120:D_N 0
59 *4269:B1 *4265:D 6.75007e-05
60 *4269:B1 *4267:A 0
61 *4269:B1 *4268:B 0.000188586
62 *4269:B1 *4269:A1 2.14658e-05
63 *4269:B1 *285:10 6.74911e-05
64 *4269:B1 *285:23 7.8327e-05
65 *4269:B1 *286:6 0.000230475
66 *4275:B1 *4275:A1 5.71472e-05
67 *4275:B1 *4275:A2 5.33433e-05
68 *4275:B1 *4278:A2 5.7661e-06
69 *4275:B1 *219:6 3.18676e-05
70 *4275:B1 *219:17 6.42778e-05
71 *4275:B1 *219:19 6.19181e-05
72 *4275:B1 *262:8 0.000191042
73 *4275:B1 *275:10 0
74 *140:18 *4381:CLK 0
75 *140:18 *4382:CLK 0.000146523
76 *140:18 *4394:CLK 0
77 *140:18 *4398:CLK 0
78 *140:18 *204:10 7.15591e-05
79 *140:18 *260:96 0.000272371
80 *140:18 *261:84 0
81 *140:18 *287:14 0
82 *140:38 *4124:B2 0
83 *140:38 *4381:D 0
84 *140:38 *287:14 0
85 *140:38 *373:222 4.20435e-05
86 *140:51 *4122:A1 0
87 *140:51 *356:18 2.84494e-05
88 *140:51 *356:27 5.80706e-06
89 *140:51 *373:222 6.26653e-05
90 *140:51 *373:231 0.000101959
91 *140:51 *373:244 1.9643e-05
92 *140:66 *4110:C 4.87854e-05
93 *140:66 *4380:CLK 0.000122091
94 *140:66 *4380:D 1.64343e-05
95 *140:66 *200:23 0.000101545
96 *140:66 *278:12 8.25843e-06
97 *140:72 *4247:A 0.000181803
98 *140:72 *4281:C 0.000129534
99 *140:72 *4485:A 7.32272e-05
100 *140:81 *4278:B1 2.89114e-05
101 *140:89 *4280:C 9.80029e-05
102 *140:89 *219:19 1.17968e-05
103 *140:89 *274:16 8.30773e-05
104 *140:100 *4104:C 5.58941e-05
105 *140:100 *4107:A 3.06406e-05
106 *140:100 *4107:D_N 0
107 *140:100 *4117:B 6.45184e-05
108 *140:100 *4120:C 0
109 *140:100 *4265:B 0
110 *140:100 *4266:A1 0
111 *140:100 *274:16 0.000198705
112 *140:100 *274:20 0.00014209
113 *140:100 *275:18 5.85228e-05
114 *140:100 *284:49 0.000270958
115 *140:108 *4265:B 0
116 *140:108 *4266:A2 3.57163e-05
117 *140:108 *4386:D 0
118 *140:108 *4510:A 0.00010096
119 *140:108 *283:23 0
120 *140:108 *284:10 8.00806e-05
121 *140:108 *284:36 7.12747e-05
122 *140:108 *284:49 0.000167691
123 *140:108 *410:14 0
124 *140:132 *4264:B 6.09919e-05
125 *140:132 *4461:A 0.000184619
126 *140:132 *4495:A 0.000312215
127 *140:181 *200:23 3.17148e-05
128 *140:181 *273:12 0.000113887
129 *4121:D *140:100 0
130 *4122:B1_N *140:38 0
131 *4122:B1_N *140:51 0
132 *4144:B *140:8 2.89016e-05
133 *4152:A3 *4152:B1 3.33174e-05
134 *4382:D *140:18 0.000103329
135 *4396:D *4152:B1 5.56943e-05
136 *4398:D *4252:B 0
137 *4398:D *140:18 0
138 *4486:A *140:72 0.000136776
139 *4598:A *4275:B1 0.000269422
140 *134:40 *4244:C 7.48356e-05
141 *134:40 *140:66 5.33786e-05
142 *134:40 *140:181 0.000123762
*RES
1 *4144:Y *140:8 14.7464 
2 *140:8 *140:18 23.6071 
3 *140:18 *4252:B 21.1571 
4 *140:18 *4254:B1 13.8 
5 *140:8 *140:38 3.16071 
6 *140:38 *4248:B1 20.925 
7 *140:38 *140:51 7.10714 
8 *140:51 *140:53 4.5 
9 *140:53 *4145:B1 9.3 
10 *140:53 *140:66 15.8393 
11 *140:66 *140:72 15.3214 
12 *140:72 *4281:A 9.3 
13 *140:72 *140:81 3.73214 
14 *140:81 *140:83 4.5 
15 *140:83 *140:89 8.30357 
16 *140:89 *4272:B1 11.4786 
17 *140:89 *140:100 14.3393 
18 *140:100 *140:108 13.0893 
19 *140:108 *4260:B1 9.3 
20 *140:108 *4257:B1 11.0679 
21 *140:100 *140:124 5.03571 
22 *140:124 *140:132 12.1607 
23 *140:132 *4263:B1 19.6214 
24 *140:132 *4269:B1 20.6571 
25 *140:124 *4266:B1 9.3 
26 *140:83 *4275:B1 24.6393 
27 *140:81 *4277:B1 9.3 
28 *140:66 *140:181 3.16071 
29 *140:181 *4246:B1 14.3357 
30 *140:181 *4244:C 17.925 
31 *140:51 *4152:B1 24.9161 
*END

*D_NET *141 0.000981727
*CONN
*I *4286:A I *D sky130_fd_sc_hd__nor2_1
*I *4147:B1 I *D sky130_fd_sc_hd__a31o_1
*I *4146:Y O *D sky130_fd_sc_hd__nor3_1
*CAP
1 *4286:A 0
2 *4147:B1 0.000159762
3 *4146:Y 0.000149021
4 *141:10 0.000308783
5 *4147:B1 *4285:C1 2.84109e-05
6 *4147:B1 *4337:B1 0.000146474
7 *4147:B1 *265:12 1.3142e-05
8 *141:10 *4132:A1 0
9 *141:10 *4146:C 7.43578e-06
10 *141:10 *4285:C1 1.76564e-05
11 *141:10 *4286:B 9.60875e-05
12 *141:10 *225:10 5.49544e-05
*RES
1 *4146:Y *141:10 12.3357 
2 *141:10 *4147:B1 21.0857 
3 *141:10 *4286:A 9.3 
*END

*D_NET *142 0.0132966
*CONN
*I *4177:A I *D sky130_fd_sc_hd__or2_1
*I *4180:A I *D sky130_fd_sc_hd__or2_1
*I *4183:A I *D sky130_fd_sc_hd__or2_1
*I *4284:A3 I *D sky130_fd_sc_hd__a31o_1
*I *4151:A2 I *D sky130_fd_sc_hd__a22o_1
*I *4186:A I *D sky130_fd_sc_hd__or2_1
*I *4174:A I *D sky130_fd_sc_hd__or2_1
*I *4171:A I *D sky130_fd_sc_hd__or2_1
*I *4148:X O *D sky130_fd_sc_hd__and2_2
*CAP
1 *4177:A 0.000717327
2 *4180:A 0.000189994
3 *4183:A 0
4 *4284:A3 0
5 *4151:A2 0.000630085
6 *4186:A 8.58401e-05
7 *4174:A 0.000194678
8 *4171:A 0
9 *4148:X 0.000478523
10 *142:57 0.00153437
11 *142:49 0.000998668
12 *142:36 0.000534143
13 *142:32 0.000773973
14 *142:28 0.00113215
15 *142:12 0.000194678
16 *142:10 0.000663292
17 *4151:A2 *535:DIODE 2.59355e-05
18 *4151:A2 *4151:A1 0.000105411
19 *4151:A2 *4151:B2 3.14078e-05
20 *4151:A2 *4189:A1 0
21 *4151:A2 *259:14 0
22 *4151:A2 *350:14 0
23 *4151:A2 *373:66 0.000191877
24 *4151:A2 *373:68 6.98302e-05
25 *4151:A2 *373:70 7.22594e-05
26 *4151:A2 *373:72 0.000117196
27 *4151:A2 *373:74 0.000574903
28 *4151:A2 *373:132 4.45694e-05
29 *4174:A *4171:B 9.41642e-05
30 *4174:A *4601:A 5.20751e-05
31 *4177:A *4160:A1 2.83284e-06
32 *4177:A *4172:A1 0.000244751
33 *4177:A *4178:A1 3.99959e-05
34 *4177:A *4354:D 0.000153054
35 *4177:A *4577:A 9.9254e-05
36 *4177:A *362:145 4.46186e-06
37 *4177:A *373:343 0
38 *4180:A *4163:A1 5.52238e-05
39 *4180:A *4179:A0 5.52238e-05
40 *4180:A *4180:B 0.00010061
41 *4180:A *4182:S 2.30314e-05
42 *4186:A *4186:B 2.14757e-05
43 *142:10 *4102:A 9.16173e-05
44 *142:10 *4172:A1 7.50601e-05
45 *142:10 *259:53 2.8266e-06
46 *142:10 *259:64 0.000109161
47 *142:10 *360:62 0.000227532
48 *142:10 *514:16 0.000473139
49 *142:28 *4172:A1 0.000145584
50 *142:28 *373:48 0
51 *142:28 *373:343 0
52 *142:32 *4179:A1 0.000184745
53 *142:32 *153:30 0.000226146
54 *142:32 *153:34 2.32517e-05
55 *142:36 *4185:A0 5.52238e-05
56 *142:36 *4186:B 0.000239879
57 *142:36 *153:30 0.000102207
58 *142:49 *4183:B 0.00022653
59 *142:49 *4184:A2 0.000104236
60 *142:49 *143:74 1.0945e-05
61 *142:57 *4183:B 9.54798e-06
62 *142:57 *143:74 9.60337e-06
63 *4336:A1 *4151:A2 0
64 *4479:A *4151:A2 3.99614e-06
65 *4520:A *4151:A2 1.18064e-05
66 *4573:A *4177:A 0.000266051
67 *4578:A *4177:A 5.01883e-05
68 *100:79 *4151:A2 0.00034008
*RES
1 *4148:X *142:10 23.8179 
2 *142:10 *142:12 4.5 
3 *142:12 *4171:A 9.3 
4 *142:12 *4174:A 12.7286 
5 *142:10 *142:28 3.46429 
6 *142:28 *142:32 9.55357 
7 *142:32 *142:36 7.125 
8 *142:36 *4186:A 10.6571 
9 *142:36 *142:49 7.89286 
10 *142:49 *142:57 8.72925 
11 *142:57 *4151:A2 30.8 
12 *142:57 *4284:A3 13.8 
13 *142:49 *4183:A 13.8 
14 *142:32 *4180:A 21.55 
15 *142:28 *4177:A 27.4964 
*END

*D_NET *143 0.0128312
*CONN
*I *4184:A2 I *D sky130_fd_sc_hd__o211a_1
*I *4187:A2 I *D sky130_fd_sc_hd__o211a_1
*I *4189:A2 I *D sky130_fd_sc_hd__o211a_1
*I *4190:C I *D sky130_fd_sc_hd__and3_1
*I *4172:A2 I *D sky130_fd_sc_hd__o211a_1
*I *4178:A2 I *D sky130_fd_sc_hd__o211a_1
*I *4181:A2 I *D sky130_fd_sc_hd__o211a_1
*I *4175:A2 I *D sky130_fd_sc_hd__o211a_1
*I *4149:Y O *D sky130_fd_sc_hd__nand2_2
*CAP
1 *4184:A2 0.00027054
2 *4187:A2 0
3 *4189:A2 0.000185222
4 *4190:C 9.52892e-05
5 *4172:A2 0
6 *4178:A2 0.000646386
7 *4181:A2 0.000105259
8 *4175:A2 0.00045757
9 *4149:Y 0
10 *143:88 0.000522933
11 *143:80 0.000457444
12 *143:74 0.000732606
13 *143:31 0.00112299
14 *143:16 0.000828918
15 *143:14 0.000676602
16 *143:4 0.000923645
17 *4175:A2 *4170:A0 0.000141133
18 *4175:A2 *4170:S 2.14658e-05
19 *4175:A2 *4172:B1 1.02504e-05
20 *4175:A2 *4175:B1 4.10796e-05
21 *4175:A2 *4351:CLK 1.02504e-05
22 *4175:A2 *4351:D 8.5662e-05
23 *4175:A2 *4583:A 0.00104535
24 *4175:A2 *4584:A 0
25 *4175:A2 *327:8 9.61456e-05
26 *4175:A2 *362:35 3.18747e-05
27 *4175:A2 *362:107 5.83304e-05
28 *4175:A2 *514:16 0
29 *4178:A2 *4160:A1 0.000130904
30 *4178:A2 *4178:B1 2.06178e-05
31 *4178:A2 *4181:C1 3.25745e-05
32 *4178:A2 *267:14 3.73407e-05
33 *4178:A2 *362:137 1.02504e-05
34 *4181:A2 *551:DIODE 3.69047e-06
35 *4181:A2 *4181:C1 5.33005e-05
36 *4181:A2 *362:145 9.41642e-05
37 *4181:A2 *373:355 5.74499e-06
38 *4184:A2 *4183:B 3.97543e-05
39 *4184:A2 *4184:B1 0.000536802
40 *4184:A2 *4184:C1 1.50181e-05
41 *4184:A2 *331:12 0
42 *4189:A2 *4284:B1 1.37292e-05
43 *4189:A2 *264:117 0.000117378
44 *4189:A2 *373:66 3.69865e-05
45 *4189:A2 *373:68 2.79092e-05
46 *4189:A2 *373:70 9.11365e-06
47 *4190:C *264:119 4.02881e-05
48 *143:14 *4149:A 9.7659e-05
49 *143:14 *4169:A 1.56e-05
50 *143:14 *4172:C1 9.19184e-05
51 *143:14 *153:8 0.000178847
52 *143:31 *4172:B1 0.000113038
53 *143:31 *4180:B 0
54 *143:31 *4182:S 0
55 *143:31 *4354:CLK 0.000128154
56 *143:31 *4571:A 6.42338e-05
57 *143:31 *267:14 0.00015234
58 *143:31 *362:107 0.000215583
59 *143:31 *362:137 0.000659932
60 *143:31 *373:60 2.96805e-05
61 *143:74 *4149:A 1.04232e-05
62 *143:74 *4169:A 1.19402e-05
63 *143:74 *4184:C1 8.11028e-06
64 *143:74 *4191:A3 6.05161e-06
65 *143:74 *4357:D 0
66 *143:80 *4184:B1 2.89016e-05
67 *143:80 *4187:C1 0.000230475
68 *143:80 *362:117 7.03295e-05
69 *143:80 *373:64 4.88546e-05
70 *143:88 *4187:A1 9.54798e-06
71 *143:88 *4187:B1 9.54798e-06
72 *143:88 *4284:B1 5.37941e-05
73 *97:77 *4181:A2 1.98839e-05
74 *100:90 *4189:A2 2.94103e-05
75 *133:42 *4189:A2 3.17148e-05
76 *133:42 *4190:C 5.33005e-05
77 *133:42 *143:74 2.89114e-05
78 *133:42 *143:88 0.000215102
79 *133:51 *143:14 1.92175e-05
80 *133:55 *143:74 0
81 *133:93 *143:14 0.000281354
82 *142:49 *4184:A2 0.000104236
83 *142:49 *143:74 1.0945e-05
84 *142:57 *143:74 9.60337e-06
*RES
1 *4149:Y *143:4 9.3 
2 *143:4 *143:14 11.0714 
3 *143:14 *143:16 4.5 
4 *143:16 *4175:A2 27.3714 
5 *143:16 *143:31 11.3571 
6 *143:31 *4181:A2 16.0143 
7 *143:31 *4178:A2 22.6772 
8 *143:14 *4172:A2 9.3 
9 *143:4 *143:74 8.32143 
10 *143:74 *143:80 9.57143 
11 *143:80 *143:88 12.8214 
12 *143:88 *4190:C 10.5411 
13 *143:88 *4189:A2 22.3 
14 *143:80 *4187:A2 9.3 
15 *143:74 *4184:A2 21.2107 
*END

*D_NET *144 0.0206403
*CONN
*I *4336:C1 I *D sky130_fd_sc_hd__o211a_1
*I *4330:B1 I *D sky130_fd_sc_hd__o21ai_1
*I *4328:B1 I *D sky130_fd_sc_hd__o21ai_1
*I *4326:B I *D sky130_fd_sc_hd__and3b_1
*I *4322:B1 I *D sky130_fd_sc_hd__o21ai_1
*I *4320:B1 I *D sky130_fd_sc_hd__o21ai_1
*I *4314:B1 I *D sky130_fd_sc_hd__o21ai_1
*I *4151:B1 I *D sky130_fd_sc_hd__a22o_1
*I *4301:C I *D sky130_fd_sc_hd__and3b_1
*I *4302:B1 I *D sky130_fd_sc_hd__o21ai_1
*I *4317:B1 I *D sky130_fd_sc_hd__o21ai_1
*I *4312:B I *D sky130_fd_sc_hd__and3b_1
*I *4334:A I *D sky130_fd_sc_hd__and3_1
*I *4307:B I *D sky130_fd_sc_hd__and3b_1
*I *4309:C1 I *D sky130_fd_sc_hd__o211a_1
*I *4150:Y O *D sky130_fd_sc_hd__nor2_4
*CAP
1 *4336:C1 2.06112e-05
2 *4330:B1 0.000202289
3 *4328:B1 0
4 *4326:B 6.94563e-05
5 *4322:B1 0.000518838
6 *4320:B1 0
7 *4314:B1 0.000155287
8 *4151:B1 0
9 *4301:C 0
10 *4302:B1 0.000123396
11 *4317:B1 0
12 *4312:B 0
13 *4334:A 0.00046204
14 *4307:B 0.000127965
15 *4309:C1 0.000211647
16 *4150:Y 2.72823e-05
17 *144:148 0.000558836
18 *144:142 0.00098838
19 *144:140 0.000512175
20 *144:138 0.00117674
21 *144:124 0.00119386
22 *144:122 0.000734511
23 *144:95 0.000283881
24 *144:68 0.000810566
25 *144:60 0.00100058
26 *144:26 0.000433272
27 *144:24 0.00107487
28 *144:18 0.000791028
29 *144:10 0.000506663
30 *144:6 0.000754903
31 *4302:B1 *4301:A_N 5.33005e-05
32 *4302:B1 *4301:B 3.30352e-05
33 *4302:B1 *4303:B1 1.33343e-05
34 *4309:C1 *4304:A1 3.93986e-05
35 *4309:C1 *4304:B1 0.000221156
36 *4309:C1 *4472:A 9.25014e-06
37 *4309:C1 *4473:A 0.0001399
38 *4309:C1 *446:10 3.50838e-05
39 *4314:B1 *4313:B 0
40 *4314:B1 *4315:B 0.000200988
41 *4314:B1 *243:10 0
42 *4314:B1 *261:46 8.5896e-05
43 *4322:B1 *4321:B 5.41494e-05
44 *4322:B1 *4322:A1 0.000318101
45 *4322:B1 *4322:A2 0.000175493
46 *4322:B1 *247:12 2.88018e-06
47 *4322:B1 *261:40 0
48 *4330:B1 *4333:C 2.84494e-05
49 *4330:B1 *4542:A 0
50 *4330:B1 *471:51 0.000104604
51 *4334:A *4128:A 5.35516e-05
52 *4334:A *4129:A 0
53 *4334:A *4312:C 0.000269529
54 *4334:A *4318:A 9.25014e-06
55 *4334:A *4324:B1 0
56 *4334:A *4335:A3 2.89016e-05
57 *4334:A *4408:CLK 0
58 *4334:A *242:14 2.49484e-05
59 *4334:A *519:19 1.37292e-05
60 *4336:C1 *4336:A2 3.99614e-06
61 *144:6 *549:DIODE 1.56e-05
62 *144:10 *4151:A1 3.67452e-05
63 *144:10 *4603:A 0.00022287
64 *144:10 *373:74 8.40827e-05
65 *144:18 *4151:A1 2.80412e-05
66 *144:18 *4305:A 6.22481e-05
67 *144:18 *264:14 3.42616e-05
68 *144:24 *4127:C 1.74352e-05
69 *144:24 *4127:D_N 0.000268403
70 *144:24 *4305:B 4.16021e-05
71 *144:24 *4472:A 3.34366e-05
72 *144:24 *238:14 0
73 *144:24 *388:23 0.000236806
74 *144:24 *446:10 2.6949e-05
75 *144:24 *446:36 2.37761e-05
76 *144:26 *4304:B1 0.000256849
77 *144:26 *4472:A 0.000290986
78 *144:26 *388:23 3.17148e-05
79 *144:60 *4306:A 0.000198291
80 *144:60 *4306:B 7.06071e-05
81 *144:60 *4310:B1 0.00010096
82 *144:60 *4311:B 0.000186662
83 *144:60 *4317:A1 0
84 *144:60 *4317:A2 0
85 *144:60 *234:26 2.32993e-05
86 *144:60 *234:28 1.69961e-05
87 *144:60 *238:14 1.02936e-05
88 *144:60 *239:12 4.01768e-05
89 *144:60 *242:14 8.13914e-05
90 *144:60 *353:16 0.000138919
91 *144:60 *388:8 5.33005e-05
92 *144:60 *407:12 1.74352e-05
93 *144:68 *4128:B 0
94 *144:68 *4408:CLK 3.71496e-05
95 *144:68 *4408:D 3.32132e-06
96 *144:95 *4127:C 1.21289e-05
97 *144:95 *4301:A_N 9.16074e-05
98 *144:122 *549:DIODE 9.60939e-05
99 *144:122 *4336:A2 6.71854e-05
100 *144:124 *4336:A2 7.48091e-05
101 *144:138 *4328:A2 1.99099e-05
102 *144:138 *4414:CLK 0.000267377
103 *144:138 *4414:D 0.000192872
104 *144:138 *4544:A 2.72967e-05
105 *144:138 *152:16 0
106 *144:138 *259:106 0.000269422
107 *144:138 *261:8 4.88546e-05
108 *144:138 *261:16 0.000166983
109 *144:140 *4324:A2 0
110 *144:140 *4326:C 4.15914e-05
111 *144:140 *4328:A2 0.000305121
112 *144:140 *247:25 0
113 *144:140 *261:16 3.34366e-05
114 *144:140 *261:29 0
115 *144:140 *261:40 0
116 *144:140 *458:20 0
117 *144:142 *247:25 0
118 *144:148 *4129:C 0
119 *144:148 *4315:B 6.42877e-05
120 *144:148 *4320:A1 0.00010096
121 *144:148 *4320:A2 0.00014285
122 *144:148 *4524:A 2.44318e-05
123 *144:148 *247:25 0
124 *144:148 *261:40 0
125 *144:148 *261:46 0
126 *4131:A *144:24 1.02504e-05
127 *4336:A1 *144:122 0.000358965
128 *4474:A *4307:B 4.00276e-06
129 *4492:A *144:68 1.50524e-05
130 *4501:A *4326:B 5.33334e-05
131 *4525:A *4322:B1 4.87854e-05
132 *4604:A *144:122 9.61553e-05
133 *100:106 *144:10 0.000128154
134 *130:16 *144:10 0.000306082
135 *130:16 *144:18 0.000223677
*RES
1 *4150:Y *144:6 9.83571 
2 *144:6 *144:10 11.9107 
3 *144:10 *144:18 11.6607 
4 *144:18 *144:24 11.2679 
5 *144:24 *144:26 3.76786 
6 *144:26 *4309:C1 19.2643 
7 *144:26 *4307:B 15.1571 
8 *144:24 *144:60 16.1964 
9 *144:60 *144:68 13.6429 
10 *144:68 *4334:A 27.0857 
11 *144:68 *4312:B 9.3 
12 *144:60 *4317:B1 9.3 
13 *144:18 *144:95 2.17857 
14 *144:95 *4302:B1 11.8179 
15 *144:95 *4301:C 9.3 
16 *144:10 *4151:B1 13.8 
17 *144:6 *144:122 9.89286 
18 *144:122 *144:124 3 
19 *144:124 *144:138 21.125 
20 *144:138 *144:140 8.32143 
21 *144:140 *144:142 1.03571 
22 *144:142 *144:148 12.2679 
23 *144:148 *4314:B1 22.1036 
24 *144:148 *4320:B1 9.3 
25 *144:142 *4322:B1 31.675 
26 *144:140 *4326:B 14.7464 
27 *144:138 *4328:B1 13.8 
28 *144:124 *4330:B1 22.675 
29 *144:122 *4336:C1 9.72857 
*END

*D_NET *145 0.00196961
*CONN
*I *4154:B1_N I *D sky130_fd_sc_hd__o21ba_1
*I *4153:X O *D sky130_fd_sc_hd__a21o_1
*CAP
1 *4154:B1_N 0.000183448
2 *4153:X 0.000183448
3 *4154:B1_N *4157:A 3.98559e-05
4 *4154:B1_N *4562:A 0.000391
5 *4154:B1_N *4564:A 0.000229456
6 *4154:B1_N *495:12 0.000125731
7 *4153:A2 *4154:B1_N 0.000304394
8 *100:263 *4154:B1_N 0.000124869
9 *133:166 *4154:B1_N 0.000387411
*RES
1 *4153:X *4154:B1_N 35.9393 
*END

*D_NET *146 0.00656456
*CONN
*I *4584:A I *D sky130_fd_sc_hd__dlygate4sd3_1
*I *4155:X O *D sky130_fd_sc_hd__or2_1
*CAP
1 *4584:A 0.00271144
2 *4155:X 0.00271144
3 *4584:A *4156:C1 6.43988e-05
4 *4584:A *4172:B1 0
5 *4584:A *4188:B1 7.04444e-05
6 *4584:A *4567:A 1.01912e-05
7 *4584:A *153:21 7.73277e-05
8 *4584:A *335:18 0
9 *4584:A *362:117 0.000119135
10 *4584:A *373:60 0.000138873
11 *4584:A *513:16 0.000153386
12 uart_txd *4584:A 0.000346177
13 *4148:B *4584:A 0
14 *4155:B *4584:A 0.00016174
15 *4175:A2 *4584:A 0
*RES
1 *4155:X *4584:A 49.5907 
*END

*D_NET *147 0.00137236
*CONN
*I *4564:A I *D sky130_fd_sc_hd__dlygate4sd3_1
*I *4157:X O *D sky130_fd_sc_hd__or2_1
*CAP
1 *4564:A 0.000205677
2 *4157:X 0.000205677
3 *4564:A *4157:A 0.000584962
4 *4154:A2 *4564:A 0
5 *4154:B1_N *4564:A 0.000229456
6 *4157:B *4564:A 7.32955e-05
7 *133:166 *4564:A 7.32955e-05
*RES
1 *4157:X *4564:A 25.7429 
*END

*D_NET *148 0.000648933
*CONN
*I *4568:A I *D sky130_fd_sc_hd__dlygate4sd3_1
*I *4159:X O *D sky130_fd_sc_hd__or2_1
*CAP
1 *4568:A 0.000324467
2 *4159:X 0.000324467
*RES
1 *4159:X *4568:A 23.7786 
*END

*D_NET *149 0.000910027
*CONN
*I *4162:B1 I *D sky130_fd_sc_hd__a21o_1
*I *4161:X O *D sky130_fd_sc_hd__a21o_1
*CAP
1 *4162:B1 0.000209425
2 *4161:X 0.000209425
3 *4162:B1 *4353:D 4.88546e-05
4 *4563:A *4162:B1 0.000173921
5 *4578:A *4162:B1 0.000268403
*RES
1 *4161:X *4162:B1 24.0643 
*END

*D_NET *150 0.0035649
*CONN
*I *4164:B1 I *D sky130_fd_sc_hd__a21o_1
*I *4163:X O *D sky130_fd_sc_hd__a21o_1
*CAP
1 *4164:B1 0.00129922
2 *4163:X 0.00129922
3 *4164:B1 *4160:A1 0
4 *4164:B1 *4162:A1 0.000151095
5 *4164:B1 *4346:D 1.53273e-05
6 *4164:B1 *4348:D 8.41806e-05
7 *4164:B1 *4570:A 0.00022511
8 *4164:B1 *4614:A 4.52413e-05
9 *4164:B1 *267:65 0.000223877
10 *4164:B1 *267:72 6.62868e-05
11 *4164:B1 *478:6 2.09915e-05
12 *4163:B1 *4164:B1 5.20669e-05
13 *4563:A *4164:B1 0
14 *4578:A *4164:B1 0
15 *134:97 *4164:B1 3.03325e-05
16 *134:107 *4164:B1 5.19454e-05
*RES
1 *4163:X *4164:B1 48.6357 
*END

*D_NET *151 0.00754936
*CONN
*I *4166:B1 I *D sky130_fd_sc_hd__a21o_1
*I *4165:X O *D sky130_fd_sc_hd__a21o_1
*CAP
1 *4166:B1 0.00105681
2 *4165:X 0.0014615
3 *151:10 0.00251831
4 *4166:B1 *4166:A1 6.97409e-05
5 *4166:B1 *511:10 1.24368e-05
6 *151:10 *567:DIODE 0.000114759
7 *151:10 *4231:B1 0
8 *151:10 *4394:D 6.26818e-05
9 *151:10 *4521:A 5.52302e-05
10 *151:10 *259:160 0.00118286
11 *151:10 *356:12 0
12 *151:10 *356:65 0
13 *151:10 *356:78 0
14 *151:10 *366:12 0
15 *151:10 *373:270 4.038e-06
16 *151:10 *450:8 0.000359117
17 *151:10 *450:21 0.000363252
18 *151:10 *488:66 0.000139069
19 *546:DIODE *4166:B1 7.77751e-05
20 *4143:B1 *151:10 1.65558e-05
21 *4166:A2 *4166:B1 5.52302e-05
22 *4167:A2 *151:10 0
23 *4395:D *151:10 0
24 *100:328 *151:10 0
25 *122:32 *151:10 0
26 *133:10 *151:10 0
27 *134:14 *151:10 0
*RES
1 *4165:X *151:10 46.3714 
2 *151:10 *4166:B1 32.425 
*END

*D_NET *152 0.00583613
*CONN
*I *4168:B1 I *D sky130_fd_sc_hd__a21o_1
*I *4167:X O *D sky130_fd_sc_hd__a21o_1
*CAP
1 *4168:B1 0.000549143
2 *4167:X 0.00129999
3 *152:16 0.00184914
4 *4168:B1 *4493:A 6.05161e-06
5 *152:16 *4282:B 0.00022832
6 *152:16 *4327:A 0
7 *152:16 *4328:A2 8.27403e-05
8 *152:16 *4329:B 8.87691e-05
9 *152:16 *4528:A 0.000580984
10 *152:16 *252:12 5.0725e-05
11 *152:16 *252:33 0.000119237
12 *152:16 *259:106 0.000153047
13 *152:16 *261:16 0
14 *152:16 *261:84 0
15 *152:16 *458:12 0.000357952
16 *4168:A2 *4168:B1 0.00010096
17 *100:20 *152:16 5.52302e-05
18 *134:24 *4168:B1 0.000313834
19 *144:138 *152:16 0
*RES
1 *4167:X *152:16 45.2554 
2 *152:16 *4168:B1 21.1482 
*END

*D_NET *153 0.00691528
*CONN
*I *4182:S I *D sky130_fd_sc_hd__mux2_1
*I *4179:S I *D sky130_fd_sc_hd__mux2_1
*I *4173:S I *D sky130_fd_sc_hd__mux2_1
*I *4170:S I *D sky130_fd_sc_hd__mux2_1
*I *4176:S I *D sky130_fd_sc_hd__mux2_1
*I *4185:S I *D sky130_fd_sc_hd__mux2_1
*I *4188:B1 I *D sky130_fd_sc_hd__a22o_1
*I *4169:Y O *D sky130_fd_sc_hd__nand2_2
*CAP
1 *4182:S 0.000204405
2 *4179:S 0
3 *4173:S 4.22242e-05
4 *4170:S 0.000109311
5 *4176:S 5.53996e-05
6 *4185:S 0
7 *4188:B1 0.000146549
8 *4169:Y 6.36308e-05
9 *153:55 0.000677094
10 *153:34 0.000887495
11 *153:30 0.000530587
12 *153:23 0.00022405
13 *153:21 0.000411002
14 *153:8 0.000416778
15 *4170:S *4170:A0 0.000228753
16 *4170:S *362:94 0.00015134
17 *4173:S *362:94 0.000225982
18 *4173:S *373:48 0.000225982
19 *4176:S *4176:A1 1.24368e-05
20 *4176:S *4614:A 1.98839e-05
21 *4182:S *4163:A1 0.00014285
22 *4182:S *4180:B 0
23 *4182:S *4183:B 0
24 *4182:S *4185:A0 1.17968e-05
25 *4182:S *4185:A1 5.01117e-05
26 *4182:S *331:12 0
27 *4188:B1 *4188:B2 5.52238e-05
28 *4188:B1 *4583:A 0.000251492
29 *153:21 *4180:B 0
30 *153:21 *4185:A0 0.000164008
31 *153:21 *4188:B2 3.67356e-05
32 *153:21 *4583:A 2.41865e-05
33 *153:21 *373:60 0
34 *153:30 *373:52 0.00022266
35 *153:34 *4179:A1 2.88018e-06
36 *153:34 *4614:A 2.95726e-05
37 *153:55 *4170:A0 4.49293e-05
38 *153:55 *4175:B1 0
39 *153:55 *4176:A1 2.22871e-05
40 *153:55 *4575:A 0.00012401
41 *153:55 *4576:A 5.33005e-05
42 *153:55 *4599:A 0
43 *153:55 *4614:A 4.43915e-05
44 *153:55 *346:10 0.000165659
45 led[3] *4176:S 0
46 led[3] *153:34 3.8725e-05
47 led[3] *153:55 1.73261e-05
48 *4175:A2 *4170:S 2.14658e-05
49 *4180:A *4182:S 2.30314e-05
50 *4584:A *4188:B1 7.04444e-05
51 *4584:A *153:21 7.73277e-05
52 *133:93 *153:8 5.75147e-05
53 *142:32 *153:30 0.000226146
54 *142:32 *153:34 2.32517e-05
55 *142:36 *153:30 0.000102207
56 *143:14 *153:8 0.000178847
57 *143:31 *4182:S 0
*RES
1 *4169:Y *153:8 15.5679 
2 *153:8 *4188:B1 17.7107 
3 *153:8 *153:21 5.28571 
4 *153:21 *153:23 4.5 
5 *153:23 *4185:S 9.3 
6 *153:23 *153:30 5.875 
7 *153:30 *153:34 4.14286 
8 *153:34 *4176:S 10.6929 
9 *153:34 *153:55 12.9464 
10 *153:55 *4170:S 16.9964 
11 *153:55 *4173:S 15.9786 
12 *153:30 *4179:S 9.3 
13 *153:21 *4182:S 18.0143 
*END

*D_NET *154 0.00102852
*CONN
*I *4171:B I *D sky130_fd_sc_hd__or2_1
*I *4170:X O *D sky130_fd_sc_hd__mux2_1
*CAP
1 *4171:B 0.000245124
2 *4170:X 0.000245124
3 *4171:B *4170:A0 0
4 *4171:B *259:64 0.000285413
5 *4171:B *327:8 5.71472e-05
6 *4171:B *346:10 0
7 *4174:A *4171:B 9.41642e-05
8 *133:93 *4171:B 0.000101545
*RES
1 *4170:X *4171:B 32.85 
*END

*D_NET *155 0.000938209
*CONN
*I *4172:B1 I *D sky130_fd_sc_hd__o211a_1
*I *4171:X O *D sky130_fd_sc_hd__or2_1
*CAP
1 *4172:B1 0.000272506
2 *4171:X 0.000272506
3 *4172:B1 *373:60 4.46186e-06
4 *4172:B1 *514:16 0.000265447
5 *4175:A2 *4172:B1 1.02504e-05
6 *4584:A *4172:B1 0
7 *143:31 *4172:B1 0.000113038
*RES
1 *4171:X *4172:B1 31.8321 
*END

*D_NET *156 0.00126123
*CONN
*I *4600:A I *D sky130_fd_sc_hd__dlygate4sd3_1
*I *4173:X O *D sky130_fd_sc_hd__mux2_1
*CAP
1 *4600:A 0.000383876
2 *4173:X 0.000383876
3 *4600:A *373:48 0.000440655
4 *4600:A *495:12 4.25716e-05
5 *100:206 *4600:A 0
6 *133:114 *4600:A 1.02504e-05
*RES
1 *4173:X *4600:A 33.475 
*END

*D_NET *157 0.00195307
*CONN
*I *4601:A I *D sky130_fd_sc_hd__dlygate4sd3_1
*I *4174:X O *D sky130_fd_sc_hd__or2_1
*CAP
1 *4601:A 0.000633395
2 *4174:X 0.000633395
3 *4601:A *4174:B 8.66933e-05
4 *4601:A *4175:B1 6.13039e-05
5 *4601:A *4176:A1 0.000185118
6 *4601:A *4575:A 0.000139208
7 *4174:A *4601:A 5.20751e-05
8 *133:114 *4601:A 0.000161878
*RES
1 *4174:X *4601:A 30.2429 
*END

*D_NET *158 0.000164863
*CONN
*I *4576:A I *D sky130_fd_sc_hd__dlygate4sd3_1
*I *4176:X O *D sky130_fd_sc_hd__mux2_1
*CAP
1 *4576:A 4.28133e-05
2 *4176:X 4.28133e-05
3 *4576:A *346:10 2.59355e-05
4 *153:55 *4576:A 5.33005e-05
*RES
1 *4176:X *4576:A 19.5643 
*END

*D_NET *159 0.00107851
*CONN
*I *4577:A I *D sky130_fd_sc_hd__dlygate4sd3_1
*I *4177:X O *D sky130_fd_sc_hd__or2_1
*CAP
1 *4577:A 0.000369053
2 *4177:X 0.000369053
3 *4577:A *4161:A1 2.56601e-05
4 *4577:A *4177:B 9.8224e-05
5 *4577:A *495:12 6.42242e-05
6 *4177:A *4577:A 9.9254e-05
7 *4578:A *4577:A 4.72331e-05
8 *133:134 *4577:A 5.80706e-06
9 *133:147 *4577:A 0
*RES
1 *4177:X *4577:A 33.0643 
*END

*D_NET *160 0.000646357
*CONN
*I *4571:A I *D sky130_fd_sc_hd__dlygate4sd3_1
*I *4179:X O *D sky130_fd_sc_hd__mux2_1
*CAP
1 *4571:A 0.000111796
2 *4179:X 0.000111796
3 *4571:A *362:117 0.000137983
4 *4571:A *373:60 0.000127446
5 *4571:A *514:16 9.31011e-05
6 *143:31 *4571:A 6.42338e-05
*RES
1 *4179:X *4571:A 31.0107 
*END

*D_NET *161 0.000930966
*CONN
*I *4572:A I *D sky130_fd_sc_hd__dlygate4sd3_1
*I *4180:X O *D sky130_fd_sc_hd__or2_1
*CAP
1 *4572:A 0.000307144
2 *4180:X 0.000307144
3 *4572:A *4184:A1 0.000230482
4 *4572:A *4354:CLK 0
5 *4572:A *4355:D 8.6197e-05
6 *4572:A *267:14 0
7 *4572:A *331:12 0
*RES
1 *4180:X *4572:A 33.7786 
*END

*D_NET *162 0.000753535
*CONN
*I *4183:B I *D sky130_fd_sc_hd__or2_1
*I *4182:X O *D sky130_fd_sc_hd__mux2_1
*CAP
1 *4183:B 0.000208212
2 *4182:X 0.000208212
3 *4183:B *4185:A0 0
4 *4183:B *4185:A1 0
5 *4183:B *331:12 4.1331e-06
6 *4183:B *362:117 5.71472e-05
7 *4182:S *4183:B 0
8 *4184:A2 *4183:B 3.97543e-05
9 *142:49 *4183:B 0.00022653
10 *142:57 *4183:B 9.54798e-06
*RES
1 *4182:X *4183:B 32.5107 
*END

*D_NET *163 0.00124927
*CONN
*I *4184:B1 I *D sky130_fd_sc_hd__o211a_1
*I *4183:X O *D sky130_fd_sc_hd__or2_1
*CAP
1 *4184:B1 0.000195161
2 *4183:X 0.000195161
3 *4184:B1 *4184:C1 0.00029324
4 *4184:A2 *4184:B1 0.000536802
5 *143:80 *4184:B1 2.89016e-05
*RES
1 *4183:X *4184:B1 34.9393 
*END

*D_NET *164 0.000664674
*CONN
*I *4186:B I *D sky130_fd_sc_hd__or2_1
*I *4185:X O *D sky130_fd_sc_hd__mux2_1
*CAP
1 *4186:B 0.00020166
2 *4185:X 0.00020166
3 *4186:A *4186:B 2.14757e-05
4 *142:36 *4186:B 0.000239879
*RES
1 *4185:X *4186:B 21.6179 
*END

*D_NET *165 0.000732795
*CONN
*I *4187:B1 I *D sky130_fd_sc_hd__o211a_1
*I *4186:X O *D sky130_fd_sc_hd__or2_1
*CAP
1 *4187:B1 0.000323003
2 *4186:X 0.000323003
3 *4187:B1 *4184:C1 0
4 *4187:B1 *4187:A1 7.72412e-05
5 *143:88 *4187:B1 9.54798e-06
*RES
1 *4186:X *4187:B1 32.1357 
*END

*D_NET *166 0.0015878
*CONN
*I *4189:B1 I *D sky130_fd_sc_hd__o211a_1
*I *4188:X O *D sky130_fd_sc_hd__a22o_1
*CAP
1 *4189:B1 0.000528531
2 *4188:X 0.000528531
3 *4189:B1 *4189:A1 4.09038e-05
4 *4189:B1 *4191:B1 0.000149764
5 *4189:B1 *360:20 4.59075e-05
6 *4169:B *4189:B1 9.71197e-05
7 *4191:A2 *4189:B1 0.0001399
8 *4445:A *4189:B1 5.71472e-05
*RES
1 *4188:X *4189:B1 28.4929 
*END

*D_NET *167 0.000983675
*CONN
*I *4191:B1 I *D sky130_fd_sc_hd__a31o_1
*I *4189:X O *D sky130_fd_sc_hd__o211a_1
*CAP
1 *4191:B1 0.000318861
2 *4189:X 0.000318861
3 *4191:B1 *360:20 0.000142856
4 *4189:B1 *4191:B1 0.000149764
5 *4191:A2 *4191:B1 2.14658e-05
6 *4445:A *4191:B1 3.18676e-05
*RES
1 *4189:X *4191:B1 24.9036 
*END

*D_NET *168 0.00227242
*CONN
*I *4191:A3 I *D sky130_fd_sc_hd__a31o_1
*I *4284:B1 I *D sky130_fd_sc_hd__a31o_1
*I *4190:X O *D sky130_fd_sc_hd__and3_1
*CAP
1 *4191:A3 0.000482724
2 *4284:B1 0.000222864
3 *4190:X 0.000146899
4 *168:6 0.000852487
5 *4191:A3 *4169:A 4.25716e-05
6 *4191:A3 *4357:D 5.06983e-05
7 *4284:B1 *4187:A1 8.6229e-06
8 *4284:B1 *4357:D 2.97756e-05
9 *4284:B1 *264:117 8.32242e-05
10 *4284:B1 *373:64 9.92409e-05
11 *168:6 *4357:D 4.87669e-06
12 *168:6 *264:117 1.56e-05
13 *168:6 *264:119 1.92789e-05
14 *4189:A2 *4284:B1 1.37292e-05
15 *133:42 *4191:A3 0.000125053
16 *133:42 *4284:B1 0
17 *133:42 *168:6 1.49335e-05
18 *143:74 *4191:A3 6.05161e-06
19 *143:88 *4284:B1 5.37941e-05
*RES
1 *4190:X *168:6 11.0679 
2 *168:6 *4284:B1 23.2286 
3 *168:6 *4191:A3 25.4071 
*END

*D_NET *169 0.000582364
*CONN
*I *4193:C1 I *D sky130_fd_sc_hd__o211a_1
*I *4192:X O *D sky130_fd_sc_hd__or2_1
*CAP
1 *4193:C1 0.000210391
2 *4192:X 0.000210391
3 *4193:C1 *4192:B 5.30637e-06
4 *4193:C1 *4547:A 0
5 *4193:C1 *290:16 3.05446e-05
6 *97:88 *4193:C1 0.000125731
*RES
1 *4192:X *4193:C1 31.0107 
*END

*D_NET *170 0.000872884
*CONN
*I *4195:C1 I *D sky130_fd_sc_hd__o211a_1
*I *4194:X O *D sky130_fd_sc_hd__or2_1
*CAP
1 *4195:C1 0.000138256
2 *4194:X 0.000138256
3 *4195:C1 *4195:B1 2.05938e-05
4 *4195:C1 *301:8 0.000269529
5 *4195:C1 *479:10 0.000290271
6 *4195:A2 *4195:C1 1.59782e-05
*RES
1 *4194:X *4195:C1 31.975 
*END

*D_NET *171 0.000623889
*CONN
*I *4197:C1 I *D sky130_fd_sc_hd__o211a_1
*I *4196:X O *D sky130_fd_sc_hd__or2_1
*CAP
1 *4197:C1 0.00018123
2 *4196:X 0.00018123
3 *4197:C1 *4192:B 6.97494e-05
4 *4197:C1 *362:185 6.42338e-05
5 *97:88 *4197:C1 0.000127446
*RES
1 *4196:X *4197:C1 31.0107 
*END

*D_NET *172 0.000102572
*CONN
*I *4199:C1 I *D sky130_fd_sc_hd__o211a_1
*I *4198:X O *D sky130_fd_sc_hd__or2_1
*CAP
1 *4199:C1 2.3671e-05
2 *4198:X 2.3671e-05
3 *4199:C1 *460:179 5.52302e-05
*RES
1 *4198:X *4199:C1 19.1357 
*END

*D_NET *173 0.000416574
*CONN
*I *4201:C1 I *D sky130_fd_sc_hd__o211a_1
*I *4200:X O *D sky130_fd_sc_hd__or2_1
*CAP
1 *4201:C1 6.10962e-05
2 *4200:X 6.10962e-05
3 *4201:C1 *4200:A 5.56063e-05
4 *4201:C1 *4201:B1 0
5 *4201:C1 *373:359 9.67724e-05
6 *97:62 *4201:C1 0.000142003
*RES
1 *4200:X *4201:C1 21.3054 
*END

*D_NET *174 0.00210277
*CONN
*I *4203:C1 I *D sky130_fd_sc_hd__o211a_1
*I *4202:X O *D sky130_fd_sc_hd__or2_1
*CAP
1 *4203:C1 0.000729529
2 *4202:X 0.000729529
3 *4203:C1 *4184:C1 0
4 *4203:C1 *4187:A1 2.34204e-05
5 *4203:C1 *4203:B1 5.71472e-05
6 *4203:C1 *4363:CLK 0
7 *4203:C1 *4579:A 4.57445e-05
8 *4203:C1 *259:213 0
9 *4203:C1 *306:24 9.64128e-05
10 *4558:A *4203:C1 0.000363837
11 *97:62 *4203:C1 5.71472e-05
*RES
1 *4202:X *4203:C1 39.0286 
*END

*D_NET *175 0.000563244
*CONN
*I *4205:C1 I *D sky130_fd_sc_hd__o211a_1
*I *4204:X O *D sky130_fd_sc_hd__or2_1
*CAP
1 *4205:C1 0.000174953
2 *4204:X 0.000174953
3 *4205:C1 *4205:B1 0
4 *4205:C1 *259:8 5.71472e-05
5 *4205:C1 *259:160 5.52302e-05
6 *4205:A2 *4205:C1 0.00010096
7 *4365:D *4205:C1 0
*RES
1 *4204:X *4205:C1 31.0286 
*END

*D_NET *176 0.00148208
*CONN
*I *4207:C1 I *D sky130_fd_sc_hd__o211a_1
*I *4206:X O *D sky130_fd_sc_hd__or2_1
*CAP
1 *4207:C1 0.000384806
2 *4206:X 0.000384806
3 *4207:C1 *4100:A 0.000139907
4 *4207:C1 *4206:A 7.48301e-06
5 *4207:C1 *4206:B 3.69047e-06
6 *4207:C1 *373:164 0.000277866
7 *555:DIODE *4207:C1 3.92854e-05
8 *100:291 *4207:C1 3.69697e-05
9 *100:313 *4207:C1 0.000207268
*RES
1 *4206:X *4207:C1 36.1714 
*END

*D_NET *177 0.0117372
*CONN
*I *4221:B I *D sky130_fd_sc_hd__or2_1
*I *4217:B I *D sky130_fd_sc_hd__or2_1
*I *4219:B I *D sky130_fd_sc_hd__or2_1
*I *4225:B I *D sky130_fd_sc_hd__or2_1
*I *4215:B I *D sky130_fd_sc_hd__or2_1
*I *4210:B I *D sky130_fd_sc_hd__or2_1
*I *4229:B I *D sky130_fd_sc_hd__nand2_1
*I *4228:B I *D sky130_fd_sc_hd__or2_1
*I *4213:B I *D sky130_fd_sc_hd__or2_1
*I *4223:B I *D sky130_fd_sc_hd__or2_1
*I *4208:X O *D sky130_fd_sc_hd__and2_2
*CAP
1 *4221:B 0
2 *4217:B 0
3 *4219:B 0.000734821
4 *4225:B 7.25403e-05
5 *4215:B 0
6 *4210:B 0.000334373
7 *4229:B 0
8 *4228:B 0
9 *4213:B 0.000430554
10 *4223:B 2.33189e-05
11 *4208:X 0.000329481
12 *177:109 0.00088442
13 *177:100 0.000300576
14 *177:96 0.000362348
15 *177:72 0.000814391
16 *177:59 0.000536962
17 *177:46 0.000180906
18 *177:27 0.000923515
19 *177:23 0.00122462
20 *177:10 0.000924513
21 *4210:B *4210:A 0.00014285
22 *4210:B *4212:B1 0.000129868
23 *4210:B *4213:A 0
24 *4210:B *4366:CLK 0.000377174
25 *4210:B *4560:A 0
26 *4210:B *266:151 1.02504e-05
27 *4213:B *178:69 0.000319539
28 *4219:B *4203:A1 0
29 *4219:B *4216:A1 0
30 *4219:B *4217:A 0.000384607
31 *4219:B *4219:A 4.1331e-06
32 *4219:B *460:179 0
33 *4219:B *461:25 0
34 *4219:B *468:14 9.47613e-05
35 *4223:B *4207:A1 0
36 *4223:B *460:109 1.85361e-05
37 *177:10 *4207:A1 0
38 *177:10 *4224:C1 5.16852e-05
39 *177:10 *4227:C 0
40 *177:10 *180:19 0
41 *177:10 *180:46 0
42 *177:10 *460:109 3.4323e-06
43 *177:27 *4232:C 2.61337e-05
44 *177:27 *4372:D 0.000305517
45 *177:27 *178:10 0
46 *177:27 *178:12 0
47 *177:27 *178:14 0
48 *177:27 *178:69 7.95767e-05
49 *177:27 *266:79 0
50 *177:46 *4229:A 9.41642e-05
51 *177:46 *4230:C 1.98839e-05
52 *177:46 *4232:C 3.34783e-05
53 *177:46 *379:10 0.000127594
54 *177:59 *4229:A 5.36498e-05
55 *177:59 *4230:C 2.45889e-05
56 *177:59 *379:10 0.000121355
57 *177:72 *4214:A1 0.000277118
58 *177:72 *4214:C1 5.52238e-05
59 *177:72 *4463:A 0.000276211
60 *177:72 *379:10 0.000146591
61 *177:72 *476:16 3.48705e-05
62 *177:96 *4220:B1 0
63 *177:96 *4220:C1 0
64 *177:96 *4222:A1 5.71619e-05
65 *177:100 *4220:C1 0
66 *177:100 *4222:A1 0.00015134
67 *4527:A *177:27 0
68 *4548:A *177:72 0.000100625
69 *122:80 *4213:B 0.000137983
*RES
1 *4208:X *177:10 19.0768 
2 *177:10 *4223:B 14.3804 
3 *177:10 *177:23 4.61007 
4 *177:23 *177:27 11.2761 
5 *177:27 *4213:B 21.4607 
6 *177:27 *177:46 7.19643 
7 *177:46 *4228:B 9.3 
8 *177:46 *177:59 2.03571 
9 *177:59 *4229:B 9.3 
10 *177:59 *177:72 11.7857 
11 *177:72 *4210:B 25.4607 
12 *177:72 *4215:B 9.3 
13 *177:23 *177:96 4.77333 
14 *177:96 *177:100 6.44643 
15 *177:100 *4225:B 10.2464 
16 *177:100 *177:109 2.58929 
17 *177:109 *4219:B 29.1214 
18 *177:109 *4217:B 9.3 
19 *177:96 *4221:B 13.8 
*END

*D_NET *178 0.0116314
*CONN
*I *4222:A2 I *D sky130_fd_sc_hd__o211a_1
*I *4216:A2 I *D sky130_fd_sc_hd__o211a_1
*I *4212:A2 I *D sky130_fd_sc_hd__o211a_1
*I *4214:A2 I *D sky130_fd_sc_hd__o211a_1
*I *4218:A2 I *D sky130_fd_sc_hd__o211a_1
*I *4224:A2 I *D sky130_fd_sc_hd__o211a_1
*I *4220:A2 I *D sky130_fd_sc_hd__o211a_1
*I *4226:A2 I *D sky130_fd_sc_hd__o211a_1
*I *4209:Y O *D sky130_fd_sc_hd__nand2_2
*CAP
1 *4222:A2 0.000100474
2 *4216:A2 5.79676e-05
3 *4212:A2 0.000335545
4 *4214:A2 0
5 *4218:A2 0.000450652
6 *4224:A2 5.30864e-05
7 *4220:A2 0.000436285
8 *4226:A2 0.000493032
9 *4209:Y 0.000154833
10 *178:86 0.000413039
11 *178:71 0.000528147
12 *178:69 0.000309152
13 *178:61 0.000586464
14 *178:14 0.00104921
15 *178:12 0.000254591
16 *178:10 0.000471249
17 *4212:A2 *4212:C1 0.000260783
18 *4212:A2 *4213:A 0
19 *4216:A2 *4213:A 0.000126639
20 *4216:A2 *290:16 0.000218045
21 *4218:A2 *4199:A1 0
22 *4218:A2 *4216:A1 0
23 *4218:A2 *4218:B1 0.000387708
24 *4218:A2 *4218:C1 5.71472e-05
25 *4218:A2 *180:85 0.000173804
26 *4220:A2 *4220:A1 1.04232e-05
27 *4220:A2 *4220:B1 5.33005e-05
28 *4220:A2 *4221:A 0.000210801
29 *4220:A2 *4370:CLK 0
30 *4220:A2 *4372:D 1.76204e-05
31 *4220:A2 *4557:A 0.000488486
32 *4220:A2 *266:16 0.000348879
33 *4222:A2 *4222:B1 1.04232e-05
34 *4222:A2 *180:46 6.86792e-05
35 *4224:A2 *180:38 3.57366e-05
36 *4224:A2 *455:6 5.33005e-05
37 *4226:A2 *4207:A1 0.000100831
38 *4226:A2 *4226:C1 0.000190917
39 *4226:A2 *180:10 1.02504e-05
40 *4226:A2 *180:19 4.56437e-05
41 *4226:A2 *441:6 0.000224583
42 *178:10 *180:46 1.78353e-05
43 *178:10 *290:16 5.52302e-05
44 *178:12 *4207:A1 2.24646e-05
45 *178:12 *180:46 5.38886e-05
46 *178:14 *4207:A1 0.000211642
47 *178:14 *4372:D 0
48 *178:14 *4526:A 0
49 *178:61 *4372:D 5.33005e-05
50 *178:61 *180:46 0.000261188
51 *178:69 *4213:A 9.76491e-05
52 *178:69 *266:79 0.00022117
53 *178:69 *290:16 0.000879853
54 *178:86 *4212:C1 1.02504e-05
55 *178:86 *4213:A 0
56 *178:86 *4216:A1 0
57 *178:86 *4216:C1 7.73662e-05
58 *178:86 *180:85 6.98302e-05
59 *178:86 *180:102 0.000128154
60 *4208:B *178:10 0
61 *4213:B *178:69 0.000319539
62 *4527:A *178:10 1.76135e-05
63 *4527:A *178:12 5.33882e-05
64 *4548:A *4212:A2 0.000128154
65 *122:80 *178:69 6.05161e-06
66 *133:10 *4226:A2 3.07555e-05
67 *134:81 *4224:A2 4.87854e-05
68 *177:27 *178:10 0
69 *177:27 *178:12 0
70 *177:27 *178:14 0
71 *177:27 *178:69 7.95767e-05
*RES
1 *4209:Y *178:10 16.5857 
2 *178:10 *178:12 2.25 
3 *178:12 *178:14 2.85714 
4 *178:14 *4226:A2 30.3357 
5 *178:14 *4220:A2 25.8893 
6 *178:12 *4224:A2 15.175 
7 *178:10 *178:61 9.14286 
8 *178:61 *178:69 20.1964 
9 *178:69 *178:71 4.5 
10 *178:71 *4218:A2 23.9964 
11 *178:71 *178:86 2.55357 
12 *178:86 *4214:A2 13.8 
13 *178:86 *4212:A2 20.7286 
14 *178:69 *4216:A2 11.9071 
15 *178:61 *4222:A2 11.0857 
*END

*D_NET *179 0.000270955
*CONN
*I *4212:B1 I *D sky130_fd_sc_hd__o211a_1
*I *4210:X O *D sky130_fd_sc_hd__or2_1
*CAP
1 *4212:B1 4.55999e-05
2 *4210:X 4.55999e-05
3 *4212:B1 *4213:A 2.19778e-05
4 *4212:B1 *4560:A 2.79092e-05
5 *4210:B *4212:B1 0.000129868
*RES
1 *4210:X *4212:B1 29.2429 
*END

*D_NET *180 0.01024
*CONN
*I *4224:B1 I *D sky130_fd_sc_hd__o211a_1
*I *4212:C1 I *D sky130_fd_sc_hd__o211a_1
*I *4214:B1 I *D sky130_fd_sc_hd__o211a_1
*I *4216:B1 I *D sky130_fd_sc_hd__o211a_1
*I *4218:B1 I *D sky130_fd_sc_hd__o211a_1
*I *4220:B1 I *D sky130_fd_sc_hd__o211a_1
*I *4222:B1 I *D sky130_fd_sc_hd__o211a_1
*I *4227:C I *D sky130_fd_sc_hd__and3_1
*I *4226:B1 I *D sky130_fd_sc_hd__o211a_1
*I *4211:Y O *D sky130_fd_sc_hd__nor2_2
*CAP
1 *4224:B1 0
2 *4212:C1 0.000246923
3 *4214:B1 0
4 *4216:B1 0.000195837
5 *4218:B1 0.000439981
6 *4220:B1 0.00024884
7 *4222:B1 1.99857e-05
8 *4227:C 0.000458862
9 *4226:B1 0
10 *4211:Y 0.000118136
11 *180:102 0.000282457
12 *180:85 0.000367516
13 *180:70 0.000720944
14 *180:55 0.000615317
15 *180:46 0.000731566
16 *180:38 0.000670098
17 *180:19 0.000849511
18 *180:10 0.00032861
19 *4212:C1 *4376:CLK 8.32242e-05
20 *4212:C1 *4463:A 0
21 *4216:B1 *4213:A 0.000231917
22 *4216:B1 *4216:A1 5.80706e-06
23 *4216:B1 *4216:C1 2.84398e-05
24 *4216:B1 *266:151 0
25 *4218:B1 *4199:A1 0
26 *4218:B1 *4218:C1 5.71472e-05
27 *4220:B1 *570:DIODE 4.98872e-05
28 *4220:B1 *4220:C1 1.02504e-05
29 *4220:B1 *4221:A 5.52238e-05
30 *4220:B1 *4222:C1 0
31 *4220:B1 *4434:A 0
32 *4220:B1 *259:213 0.00022376
33 *4227:C *4375:CLK 4.92221e-05
34 *4227:C *488:12 9.24491e-05
35 *4227:C *488:47 7.252e-05
36 *180:10 *4373:CLK 9.90431e-05
37 *180:10 *373:216 0.000142856
38 *180:10 *460:109 0.000222885
39 *180:19 *460:109 0.00022287
40 *180:46 *4207:A1 5.80706e-06
41 *180:46 *4224:C1 5.80706e-06
42 *180:55 *4222:C1 5.52238e-05
43 *180:70 *4434:A 5.33334e-05
44 *180:85 *4214:C1 1.02504e-05
45 *180:102 *4214:C1 0.000117903
46 *4136:C *4227:C 0
47 *4136:C *180:19 0
48 *4208:B *4227:C 0
49 *4208:B *180:46 0
50 *4212:A2 *4212:C1 0.000260783
51 *4218:A2 *4218:B1 0.000387708
52 *4218:A2 *180:85 0.000173804
53 *4220:A2 *4220:B1 5.33005e-05
54 *4222:A2 *4222:B1 1.04232e-05
55 *4222:A2 *180:46 6.86792e-05
56 *4224:A2 *180:38 3.57366e-05
57 *4226:A2 *180:10 1.02504e-05
58 *4226:A2 *180:19 4.56437e-05
59 *4227:A *4227:C 0
60 *4548:A *4212:C1 0.000153047
61 *97:12 *180:19 0
62 *97:22 *180:19 0
63 *133:10 *180:10 7.22614e-05
64 *133:10 *180:19 2.1527e-05
65 *134:81 *180:38 0.00021529
66 *177:10 *4227:C 0
67 *177:10 *180:19 0
68 *177:10 *180:46 0
69 *177:96 *4220:B1 0
70 *178:10 *180:46 1.78353e-05
71 *178:12 *180:46 5.38886e-05
72 *178:61 *180:46 0.000261188
73 *178:86 *4212:C1 1.02504e-05
74 *178:86 *180:85 6.98302e-05
75 *178:86 *180:102 0.000128154
*RES
1 *4211:Y *180:10 18.0143 
2 *180:10 *4226:B1 13.8 
3 *180:10 *180:19 4.67857 
4 *180:19 *4227:C 22.3804 
5 *180:19 *180:38 8.75 
6 *180:38 *180:46 19.0714 
7 *180:46 *4222:B1 9.72857 
8 *180:46 *180:55 3.82143 
9 *180:55 *4220:B1 24.1214 
10 *180:55 *180:70 2.58929 
11 *180:70 *4218:B1 17.9786 
12 *180:70 *180:85 7.66071 
13 *180:85 *4216:B1 25.7107 
14 *180:85 *180:102 1.64286 
15 *180:102 *4214:B1 13.8 
16 *180:102 *4212:C1 19.6571 
17 *180:38 *4224:B1 9.3 
*END

*D_NET *181 0.00036791
*CONN
*I *4214:C1 I *D sky130_fd_sc_hd__o211a_1
*I *4213:X O *D sky130_fd_sc_hd__or2_1
*CAP
1 *4214:C1 9.22662e-05
2 *4213:X 9.22662e-05
3 *177:72 *4214:C1 5.52238e-05
4 *180:85 *4214:C1 1.02504e-05
5 *180:102 *4214:C1 0.000117903
*RES
1 *4213:X *4214:C1 29.7786 
*END

*D_NET *182 0.000557785
*CONN
*I *4216:C1 I *D sky130_fd_sc_hd__o211a_1
*I *4215:X O *D sky130_fd_sc_hd__or2_1
*CAP
1 *4216:C1 0.000140203
2 *4215:X 0.000140203
3 *4216:C1 *4213:A 3.06406e-05
4 *4216:C1 *4214:A1 0.000140933
5 *4216:B1 *4216:C1 2.84398e-05
6 *178:86 *4216:C1 7.73662e-05
*RES
1 *4215:X *4216:C1 30.9036 
*END

*D_NET *183 0.00250188
*CONN
*I *4539:A I *D sky130_fd_sc_hd__dlygate4sd3_1
*I *4217:X O *D sky130_fd_sc_hd__or2_1
*CAP
1 *4539:A 0.000644582
2 *4217:X 0.000644582
3 *4539:A *4216:A1 0.000507057
4 *4539:A *4220:C1 0.000611994
5 *4539:A *4370:D 5.10822e-05
6 *4539:A *4538:A 0
7 *4539:A *266:151 4.25809e-05
*RES
1 *4217:X *4539:A 39.975 
*END

*D_NET *184 0.00209529
*CONN
*I *4220:C1 I *D sky130_fd_sc_hd__o211a_1
*I *4219:X O *D sky130_fd_sc_hd__or2_1
*CAP
1 *4220:C1 0.000365132
2 *4219:X 0.000365132
3 *4220:C1 *4217:A 0.000261246
4 *4220:C1 *4219:A 0.000108524
5 *4220:C1 *259:213 7.25392e-05
6 *4220:C1 *468:14 0.000160563
7 *4220:B1 *4220:C1 1.02504e-05
8 *4537:A *4220:C1 0.000139913
9 *4539:A *4220:C1 0.000611994
10 *177:96 *4220:C1 0
11 *177:100 *4220:C1 0
*RES
1 *4219:X *4220:C1 38.7071 
*END

*D_NET *185 0.000631312
*CONN
*I *4222:C1 I *D sky130_fd_sc_hd__o211a_1
*I *4221:X O *D sky130_fd_sc_hd__or2_1
*CAP
1 *4222:C1 0.000288044
2 *4221:X 0.000288044
3 *4222:C1 *4222:A1 0
4 *4220:B1 *4222:C1 0
5 *180:55 *4222:C1 5.52238e-05
*RES
1 *4221:X *4222:C1 32.5107 
*END

*D_NET *186 0.000350178
*CONN
*I *4224:C1 I *D sky130_fd_sc_hd__o211a_1
*I *4223:X O *D sky130_fd_sc_hd__or2_1
*CAP
1 *4224:C1 0.000137698
2 *4223:X 0.000137698
3 *4224:C1 *4207:A1 0
4 *4224:C1 *4223:A 1.72894e-05
5 *177:10 *4224:C1 5.16852e-05
6 *180:46 *4224:C1 5.80706e-06
*RES
1 *4223:X *4224:C1 30.0821 
*END

*D_NET *187 0.00128468
*CONN
*I *4226:C1 I *D sky130_fd_sc_hd__o211a_1
*I *4225:X O *D sky130_fd_sc_hd__or2_1
*CAP
1 *4226:C1 0.000219026
2 *4225:X 0.000219026
3 *4226:C1 *4471:A 0.000363837
4 *4226:C1 *441:6 0.00010096
5 *4226:A2 *4226:C1 0.000190917
6 *4482:A *4226:C1 0.000190917
*RES
1 *4225:X *4226:C1 26.1179 
*END

*D_NET *188 0.00374373
*CONN
*I *4239:A I *D sky130_fd_sc_hd__and3_1
*I *4236:A I *D sky130_fd_sc_hd__and3_1
*I *4230:A I *D sky130_fd_sc_hd__and3_1
*I *4233:B I *D sky130_fd_sc_hd__and3b_1
*I *4227:X O *D sky130_fd_sc_hd__and3_1
*CAP
1 *4239:A 0.000272616
2 *4236:A 0.000231572
3 *4230:A 6.91538e-05
4 *4233:B 4.40886e-05
5 *4227:X 0.000390527
6 *188:32 0.000753195
7 *188:21 0.00037982
8 *188:10 0.000496274
9 *4230:A *4233:A_N 5.52302e-05
10 *4233:B *4233:C 7.43578e-06
11 *4236:A *4234:A 2.28598e-05
12 *4236:A *4238:B 0.000272371
13 *4239:A *4239:B 7.83659e-05
14 *4239:A *4239:C 5.52302e-05
15 *4239:A *4442:A 0
16 *4239:A *270:10 0
17 *4239:A *270:16 0
18 *188:10 *4375:CLK 5.62995e-05
19 *188:10 *4559:A 2.34204e-05
20 *188:21 *4230:C 0
21 *188:21 *4233:A_N 1.76039e-05
22 *188:21 *4559:A 3.60626e-05
23 *188:32 *4140:A 0
24 *188:32 *4231:B1 0
25 *188:32 *4233:A_N 0.000155159
26 *188:32 *4234:B 5.59013e-05
27 *188:32 *4559:A 3.52562e-05
28 *4231:A3 *4230:A 0.000227539
29 *4231:A3 *4233:B 2.87555e-06
30 *4375:D *188:10 4.87669e-06
*RES
1 *4227:X *188:10 18.6571 
2 *188:10 *4233:B 14.3357 
3 *188:10 *188:21 1.33929 
4 *188:21 *4230:A 15.9786 
5 *188:21 *188:32 5.28571 
6 *188:32 *4236:A 17.2286 
7 *188:32 *4239:A 19.0143 
*END

*D_NET *189 0.000685119
*CONN
*I *4230:B I *D sky130_fd_sc_hd__and3_1
*I *4228:X O *D sky130_fd_sc_hd__or2_1
*CAP
1 *4230:B 0.00014807
2 *4228:X 0.00014807
3 *4230:B *4230:C 0.000289936
4 *4230:B *4448:A 9.90431e-05
5 *4230:B *4559:A 0
*RES
1 *4228:X *4230:B 31.1179 
*END

*D_NET *190 0.00125918
*CONN
*I *4230:C I *D sky130_fd_sc_hd__and3_1
*I *4229:Y O *D sky130_fd_sc_hd__nand2_1
*CAP
1 *4230:C 0.000339889
2 *4229:Y 0.000339889
3 *4230:C *4229:A 0.000132661
4 *4230:C *4448:A 7.92879e-05
5 *4230:B *4230:C 0.000289936
6 *4231:A3 *4230:C 2.26217e-05
7 *4374:D *4230:C 1.04232e-05
8 *177:46 *4230:C 1.98839e-05
9 *177:59 *4230:C 2.45889e-05
10 *188:21 *4230:C 0
*RES
1 *4229:Y *4230:C 34.9929 
*END

*D_NET *191 0.00033023
*CONN
*I *4233:C I *D sky130_fd_sc_hd__and3b_1
*I *4231:X O *D sky130_fd_sc_hd__a31o_1
*CAP
1 *4233:C 0.000113555
2 *4231:X 0.000113555
3 *4233:C *488:56 0
4 *4231:A3 *4233:C 6.97494e-05
5 *4233:B *4233:C 7.43578e-06
6 *4375:D *4233:C 2.59355e-05
*RES
1 *4231:X *4233:C 21.1 
*END

*D_NET *192 0.00387808
*CONN
*I *4237:A2 I *D sky130_fd_sc_hd__a21o_1
*I *4235:B I *D sky130_fd_sc_hd__nand2_1
*I *4233:A_N I *D sky130_fd_sc_hd__and3b_1
*I *4234:B I *D sky130_fd_sc_hd__or2_1
*I *4238:C I *D sky130_fd_sc_hd__nand3_1
*I *4232:X O *D sky130_fd_sc_hd__and4_1
*CAP
1 *4237:A2 0.000117432
2 *4235:B 0
3 *4233:A_N 0.000246587
4 *4234:B 4.05765e-05
5 *4238:C 0.000193398
6 *4232:X 7.03879e-05
7 *192:57 0.000314831
8 *192:18 0.000304069
9 *192:16 0.00068395
10 *192:8 0.000635057
11 *4233:A_N *4140:A 0
12 *4238:C *4238:A 0.000131535
13 *4238:C *4238:B 1.74352e-05
14 *192:16 *4234:A 0.000117033
15 *192:16 *4236:B 0.000270326
16 *192:16 *4236:C 5.19842e-06
17 *192:16 *4238:A 0.000269428
18 *192:18 *4238:A 0.000137983
19 *192:57 *4234:A 9.15186e-06
20 *192:57 *4236:C 2.56694e-05
21 *192:57 *380:10 4.1331e-06
22 *4230:A *4233:A_N 5.52302e-05
23 *4376:D *192:57 0
24 *188:21 *4233:A_N 1.76039e-05
25 *188:32 *4233:A_N 0.000155159
26 *188:32 *4234:B 5.59013e-05
*RES
1 *4232:X *192:8 14.8357 
2 *192:8 *192:16 11.75 
3 *192:16 *192:18 1.35714 
4 *192:18 *4238:C 13.0321 
5 *192:18 *4234:B 19.0321 
6 *192:16 *4233:A_N 23.2107 
7 *192:8 *192:57 8.19643 
8 *192:57 *4235:B 9.3 
9 *192:57 *4237:A2 11.5143 
*END

*D_NET *193 0.000634116
*CONN
*I *4236:B I *D sky130_fd_sc_hd__and3_1
*I *4234:X O *D sky130_fd_sc_hd__or2_1
*CAP
1 *4236:B 0.000181895
2 *4234:X 0.000181895
3 *192:16 *4236:B 0.000270326
*RES
1 *4234:X *4236:B 21.1893 
*END

*D_NET *194 0.000675233
*CONN
*I *4236:C I *D sky130_fd_sc_hd__and3_1
*I *4235:Y O *D sky130_fd_sc_hd__nand2_1
*CAP
1 *4236:C 0.000225407
2 *4235:Y 0.000225407
3 *4236:C *4234:A 0.000193552
4 *192:16 *4236:C 5.19842e-06
5 *192:57 *4236:C 2.56694e-05
*RES
1 *4235:Y *4236:C 31.1089 
*END

*D_NET *195 0.000986379
*CONN
*I *4239:B I *D sky130_fd_sc_hd__and3_1
*I *4237:X O *D sky130_fd_sc_hd__a21o_1
*CAP
1 *4239:B 0.000398662
2 *4237:X 0.000398662
3 *4239:B *4237:A1 8.25843e-06
4 *4239:B *4237:B1 1.92905e-05
5 *4239:B *4441:A 5.52302e-05
6 *4239:B *4442:A 2.79092e-05
7 *4239:A *4239:B 7.83659e-05
*RES
1 *4237:X *4239:B 32.8679 
*END

*D_NET *196 0.000903126
*CONN
*I *4442:A I *D sky130_fd_sc_hd__dlygate4sd3_1
*I *4238:Y O *D sky130_fd_sc_hd__nand3_1
*CAP
1 *4442:A 0.000409035
2 *4238:Y 0.000409035
3 *4442:A *4238:B 5.71472e-05
4 *4442:A *4239:C 0
5 *4442:A *4377:D 0
6 *4239:A *4442:A 0
7 *4239:B *4442:A 2.79092e-05
*RES
1 *4238:Y *4442:A 34.6357 
*END

*D_NET *197 0.00031675
*CONN
*I *4241:B1 I *D sky130_fd_sc_hd__o211a_1
*I *4240:X O *D sky130_fd_sc_hd__or2_1
*CAP
1 *4241:B1 5.15282e-05
2 *4240:X 5.15282e-05
3 *4241:B1 *4240:A 2.95726e-05
4 *4241:B1 *4241:A2 4.22908e-05
5 *122:8 *4241:B1 0.00014183
*RES
1 *4240:X *4241:B1 20.3857 
*END

*D_NET *198 0.00170666
*CONN
*I *4246:A2 I *D sky130_fd_sc_hd__o21ai_1
*I *4244:A_N I *D sky130_fd_sc_hd__and3b_1
*I *4242:X O *D sky130_fd_sc_hd__o31a_1
*CAP
1 *4246:A2 0.000115637
2 *4244:A_N 5.12037e-05
3 *4242:X 0.000153784
4 *198:6 0.000320624
5 *4244:A_N *4516:A 5.33005e-05
6 *4246:A2 *4245:B1 0
7 *4246:A2 *273:10 3.17148e-05
8 *4246:A2 *273:12 0.00017309
9 *198:6 *4242:A1 5.52302e-05
10 *198:6 *4244:B 0.000492333
11 *198:6 *4245:B1 2.61099e-05
12 *198:6 *4516:A 0.000218045
13 *4244:C *4244:A_N 1.55885e-05
*RES
1 *4242:X *198:6 14.7643 
2 *198:6 *4244:A_N 10.2464 
3 *198:6 *4246:A2 20.8536 
*END

*D_NET *199 0.00213648
*CONN
*I *4244:B I *D sky130_fd_sc_hd__and3b_1
*I *4243:X O *D sky130_fd_sc_hd__or4_1
*CAP
1 *4244:B 0.000442405
2 *4243:X 0.000442405
3 *4244:B *4242:A1 2.44318e-05
4 *4244:B *4242:A2 0.00014285
5 *4244:B *4242:A3 7.39203e-06
6 *4244:B *460:44 0.000126572
7 *4244:B *460:50 0.000369369
8 *4244:B *488:70 8.87178e-05
9 *198:6 *4244:B 0.000492333
*RES
1 *4243:X *4244:B 38.2607 
*END

*D_NET *200 0.00821359
*CONN
*I *4248:A2 I *D sky130_fd_sc_hd__o21ai_1
*I *4249:A2 I *D sky130_fd_sc_hd__a21oi_1
*I *4250:A2 I *D sky130_fd_sc_hd__a21o_1
*I *4251:B I *D sky130_fd_sc_hd__and2_1
*I *4253:C I *D sky130_fd_sc_hd__and3_1
*I *4256:D I *D sky130_fd_sc_hd__and4_1
*I *4247:A I *D sky130_fd_sc_hd__nor2_1
*I *4245:X O *D sky130_fd_sc_hd__o311a_2
*CAP
1 *4248:A2 0.000276195
2 *4249:A2 8.61506e-05
3 *4250:A2 3.45335e-05
4 *4251:B 1.69531e-05
5 *4253:C 3.8254e-05
6 *4256:D 8.01004e-05
7 *4247:A 0.000112921
8 *4245:X 0.000167071
9 *200:37 0.000557759
10 *200:29 0.000548772
11 *200:27 0.000231138
12 *200:25 0.00039306
13 *200:23 0.000831393
14 *200:6 0.000632469
15 *4247:A *4247:B 5.52302e-05
16 *4248:A2 *4581:A 6.62898e-05
17 *4250:A2 *4105:B 0.000142856
18 *4250:A2 *280:12 9.71197e-05
19 *4251:B *4420:A 5.33005e-05
20 *4251:B *260:96 5.33005e-05
21 *4253:C *4256:B 8.38038e-05
22 *4256:D *4256:B 3.8274e-05
23 *200:6 *4594:A 3.18676e-05
24 *200:23 *4103:B 0.000179817
25 *200:23 *273:12 0.000164561
26 *200:25 *4249:B1 0
27 *200:25 *4581:A 4.48206e-05
28 *200:27 *510:20 0
29 *200:29 *4252:C 0
30 *200:29 *280:12 6.74911e-05
31 *200:37 *4255:A 0.000358965
32 *200:37 *4255:B 6.85604e-05
33 *200:37 *4256:B 1.81933e-05
34 *200:37 *4420:A 0
35 *4122:B1_N *4248:A2 3.47797e-05
36 *4248:B1 *4248:A2 0.00010096
37 *4253:B *4256:D 4.43256e-05
38 *4253:B *200:37 9.90431e-05
39 *4256:C *4256:D 9.90367e-05
40 *4382:D *200:37 0
41 *4470:A *200:37 6.97972e-05
42 *4595:A *4247:A 2.60984e-05
43 *4595:A *200:6 7.71836e-05
44 *108:12 *200:23 0
45 *134:24 *200:23 0.000349939
46 *134:24 *200:25 0.000457939
47 *134:24 *200:27 0.000161637
48 *134:24 *200:29 0.000213635
49 *134:24 *200:37 0.000577587
50 *134:40 *200:23 5.53499e-05
51 *140:66 *200:23 0.000101545
52 *140:72 *4247:A 0.000181803
53 *140:181 *200:23 3.17148e-05
*RES
1 *4245:X *200:6 12.3 
2 *200:6 *4247:A 11.9071 
3 *200:6 *200:23 13.7857 
4 *200:23 *200:25 5.89286 
5 *200:25 *200:27 2.25 
6 *200:27 *200:29 2.85714 
7 *200:29 *200:37 16.9821 
8 *200:37 *4256:D 11.4786 
9 *200:37 *4253:C 10.5321 
10 *200:29 *4251:B 14.3357 
11 *200:27 *4250:A2 15.1571 
12 *200:25 *4249:A2 15.1571 
13 *200:23 *4248:A2 17.6214 
*END

*D_NET *201 0.000593119
*CONN
*I *4594:A I *D sky130_fd_sc_hd__dlygate4sd3_1
*I *4246:Y O *D sky130_fd_sc_hd__o21ai_1
*CAP
1 *4594:A 0.000152947
2 *4246:Y 0.000152947
3 *4594:A *4246:A1 6.05161e-06
4 *4594:A *4593:A 0.000179025
5 *4594:A *259:173 2.95726e-05
6 *4594:A *273:12 1.17968e-05
7 *4595:A *4594:A 2.89114e-05
8 *200:6 *4594:A 3.18676e-05
*RES
1 *4246:Y *4594:A 31.0286 
*END

*D_NET *202 0.000680091
*CONN
*I *4249:B1 I *D sky130_fd_sc_hd__a21oi_1
*I *4248:Y O *D sky130_fd_sc_hd__o21ai_1
*CAP
1 *4249:B1 0.000298476
2 *4248:Y 0.000298476
3 *4249:B1 *4581:A 2.79092e-05
4 *4249:B1 *510:14 0
5 *4122:B1_N *4249:B1 5.52302e-05
6 *200:25 *4249:B1 0
*RES
1 *4248:Y *4249:B1 32.5107 
*END

*D_NET *203 0.00114282
*CONN
*I *4252:C I *D sky130_fd_sc_hd__and3b_1
*I *4250:X O *D sky130_fd_sc_hd__a21o_1
*CAP
1 *4252:C 0.00032012
2 *4250:X 0.00032012
3 *4252:C *4252:A_N 0.000144623
4 *4252:C *4381:CLK 0
5 *4252:C *4420:A 0
6 *4252:C *204:10 9.41918e-05
7 *4252:C *280:12 0
8 *4382:D *4252:C 0.000263763
9 *200:29 *4252:C 0
*RES
1 *4250:X *4252:C 35.9214 
*END

*D_NET *204 0.00202035
*CONN
*I *4254:A2 I *D sky130_fd_sc_hd__o21ai_1
*I *4252:A_N I *D sky130_fd_sc_hd__and3b_1
*I *4251:X O *D sky130_fd_sc_hd__and2_1
*CAP
1 *4254:A2 0
2 *4252:A_N 0.000169056
3 *4251:X 0.000369638
4 *204:10 0.000538694
5 *4252:A_N *4255:B 0
6 *204:10 *260:96 0.000396898
7 *4252:B *4252:A_N 0.000207247
8 *4252:B *204:10 2.84398e-05
9 *4252:C *4252:A_N 0.000144623
10 *4252:C *204:10 9.41918e-05
11 *140:18 *204:10 7.15591e-05
*RES
1 *4251:X *204:10 20.175 
2 *204:10 *4252:A_N 18.8179 
3 *204:10 *4254:A2 13.8 
*END

*D_NET *205 0.00396277
*CONN
*I *4255:A I *D sky130_fd_sc_hd__nor2_1
*I *4257:A2 I *D sky130_fd_sc_hd__o21ai_1
*I *4253:X O *D sky130_fd_sc_hd__and3_1
*CAP
1 *4255:A 0.000287025
2 *4257:A2 0.00032878
3 *4253:X 8.2842e-05
4 *205:8 0.000698647
5 *4255:A *4256:B 2.89114e-05
6 *4257:A2 *4256:A 0.000290264
7 *4257:A2 *4257:A1 1.74352e-05
8 *4257:A2 *4420:A 0.000531273
9 *4257:A2 *260:12 0.000531273
10 *4257:A2 *281:10 0.000250201
11 *4257:A2 *281:23 0.000237514
12 *4253:B *4257:A2 9.56112e-07
13 *4253:B *205:8 3.48282e-05
14 *105:8 *4257:A2 5.41794e-05
15 *105:14 *4257:A2 0.000229678
16 *134:24 *4255:A 0
17 *134:24 *205:8 0
18 *200:37 *4255:A 0.000358965
*RES
1 *4253:X *205:8 14.9875 
2 *205:8 *4257:A2 27.2375 
3 *205:8 *4255:A 19.2554 
*END

*D_NET *206 0.000446286
*CONN
*I *4469:A I *D sky130_fd_sc_hd__dlygate4sd3_1
*I *4254:Y O *D sky130_fd_sc_hd__o21ai_1
*CAP
1 *4469:A 0.000106937
2 *4254:Y 0.000106937
3 *4469:A *4254:A1 5.52302e-05
4 *4469:A *4398:CLK 3.57366e-05
5 *4469:A *259:116 0.000141445
*RES
1 *4254:Y *4469:A 21.35 
*END

*D_NET *207 0.00628216
*CONN
*I *4260:A2 I *D sky130_fd_sc_hd__o21ai_1
*I *4265:D I *D sky130_fd_sc_hd__and4_1
*I *4262:C I *D sky130_fd_sc_hd__and3_1
*I *4259:B I *D sky130_fd_sc_hd__and2_1
*I *4258:A I *D sky130_fd_sc_hd__nor2_1
*I *4256:X O *D sky130_fd_sc_hd__and4_1
*CAP
1 *4260:A2 0.00010167
2 *4265:D 0.00035797
3 *4262:C 1.80237e-05
4 *4259:B 0.000124095
5 *4258:A 0
6 *4256:X 0.00082245
7 *207:36 0.000617131
8 *207:23 0.000680412
9 *207:19 0.000618426
10 *207:10 0.00102403
11 *4259:B *4259:A 7.49933e-05
12 *4259:B *4261:B 3.88666e-05
13 *4260:A2 *4259:A 0.000102207
14 *4260:A2 *4260:A1 3.18676e-05
15 *4260:A2 *4510:A 0.000274294
16 *4260:A2 *283:10 2.60158e-05
17 *4260:A2 *283:23 4.1331e-06
18 *4265:D *4263:A1 1.55485e-05
19 *4265:D *4495:A 6.72322e-05
20 *4265:D *213:8 3.14193e-05
21 *4265:D *283:34 0
22 *4265:D *376:6 0.00014285
23 *207:10 *4350:CLK 4.79842e-05
24 *207:19 *4350:CLK 6.85604e-05
25 *207:19 *4384:D 5.48581e-05
26 *207:19 *260:24 0
27 *207:19 *283:10 2.34204e-05
28 *207:23 *4259:A 0.00048555
29 *207:36 *4263:A1 6.42145e-05
30 *207:36 *4263:A2 7.83659e-05
31 *207:36 *4386:CLK 0
32 *207:36 *260:24 0
33 *207:36 *283:23 0
34 *4263:B1 *4265:D 0.000130668
35 *4263:B1 *207:36 8.16036e-05
36 *4269:B1 *4265:D 6.75007e-05
37 *4385:D *207:36 0
38 *4496:A *4262:C 5.7993e-06
*RES
1 *4256:X *207:10 24.1929 
2 *207:10 *4258:A 13.8 
3 *207:10 *207:19 4.375 
4 *207:19 *207:23 9.14286 
5 *207:23 *4259:B 11.3893 
6 *207:23 *207:36 9.48214 
7 *207:36 *4262:C 13.9964 
8 *207:36 *4265:D 20.9607 
9 *207:19 *4260:A2 17.425 
*END

*D_NET *208 0.000902131
*CONN
*I *4466:A I *D sky130_fd_sc_hd__dlygate4sd3_1
*I *4257:Y O *D sky130_fd_sc_hd__o21ai_1
*CAP
1 *4466:A 0.000387746
2 *4257:Y 0.000387746
3 *4466:A *4257:A1 0
4 *4466:A *4384:D 0
5 *4466:A *282:19 0
6 *4466:A *434:20 0.000126639
*RES
1 *4257:Y *4466:A 35.0643 
*END

*D_NET *209 0.00100179
*CONN
*I *4263:A2 I *D sky130_fd_sc_hd__o21ai_1
*I *4261:A I *D sky130_fd_sc_hd__nor2_1
*I *4259:X O *D sky130_fd_sc_hd__and2_1
*CAP
1 *4263:A2 0.000234496
2 *4261:A 0.000114678
3 *4259:X 0
4 *209:4 0.000349174
5 *4261:A *4261:B 7.69167e-05
6 *4263:A2 *4259:A 1.15281e-05
7 *4263:A2 *4261:B 0.000119193
8 *4263:A2 *260:24 0
9 *4385:D *4261:A 1.74352e-05
10 *207:36 *4263:A2 7.83659e-05
*RES
1 *4259:X *209:4 9.3 
2 *209:4 *4261:A 11.8179 
3 *209:4 *4263:A2 21.925 
*END

*D_NET *210 0.000891883
*CONN
*I *4510:A I *D sky130_fd_sc_hd__dlygate4sd3_1
*I *4260:Y O *D sky130_fd_sc_hd__o21ai_1
*CAP
1 *4510:A 0.000227016
2 *4260:Y 0.000227016
3 *4510:A *4259:A 6.25963e-05
4 *4260:A2 *4510:A 0.000274294
5 *140:108 *4510:A 0.00010096
*RES
1 *4260:Y *4510:A 23.6714 
*END

*D_NET *211 0.00174823
*CONN
*I *4266:A2 I *D sky130_fd_sc_hd__o21ai_1
*I *4264:A I *D sky130_fd_sc_hd__nor2_1
*I *4262:X O *D sky130_fd_sc_hd__and3_1
*CAP
1 *4266:A2 0.000319017
2 *4264:A 0.000124989
3 *4262:X 0
4 *211:4 0.000444007
5 *4266:A2 *4262:B 0.000269428
6 *4266:A2 *4265:B 0
7 *4266:A2 *410:8 0.000186669
8 *4266:A2 *410:14 5.91336e-05
9 *4496:A *4264:A 9.60875e-05
10 *4496:A *4266:A2 0.000213179
11 *140:108 *4266:A2 3.57163e-05
*RES
1 *4262:X *211:4 9.3 
2 *211:4 *4264:A 11.3893 
3 *211:4 *4266:A2 25.925 
*END

*D_NET *212 0.00171559
*CONN
*I *4495:A I *D sky130_fd_sc_hd__dlygate4sd3_1
*I *4263:Y O *D sky130_fd_sc_hd__o21ai_1
*CAP
1 *4495:A 0.000421156
2 *4263:Y 0.000421156
3 *4495:A *4263:A1 0.00010047
4 *4495:A *4461:A 0.000312215
5 *4495:A *283:23 4.15128e-05
6 *4495:A *283:34 3.4323e-05
7 *4263:B1 *4495:A 5.30637e-06
8 *4265:D *4495:A 6.72322e-05
9 *140:132 *4495:A 0.000312215
*RES
1 *4263:Y *4495:A 36.4393 
*END

*D_NET *213 0.00513738
*CONN
*I *4274:D I *D sky130_fd_sc_hd__and4_1
*I *4271:C I *D sky130_fd_sc_hd__and3_1
*I *4268:B I *D sky130_fd_sc_hd__and2_1
*I *4269:A2 I *D sky130_fd_sc_hd__o21ai_1
*I *4267:A I *D sky130_fd_sc_hd__nor2_1
*I *4265:X O *D sky130_fd_sc_hd__and4_1
*CAP
1 *4274:D 0.000142541
2 *4271:C 5.57096e-05
3 *4268:B 0.000144237
4 *4269:A2 3.92213e-05
5 *4267:A 0.000392578
6 *4265:X 0
7 *213:49 0.00054563
8 *213:19 0.000285808
9 *213:8 0.000822811
10 *213:4 0.000675261
11 *4267:A *4267:B 0
12 *4267:A *4387:D 0
13 *4267:A *285:10 0
14 *4267:A *285:23 0
15 *4268:B *4269:A1 0.000274294
16 *4268:B *286:6 4.88637e-05
17 *4269:A2 *286:6 5.52302e-05
18 *4271:C *4272:A2 1.79251e-05
19 *4274:D *4274:C 0.000330816
20 *4274:D *4278:B1 0
21 *4274:D *391:25 0.000198691
22 *213:8 *376:6 3.18676e-05
23 *213:19 *285:23 0
24 *213:49 *4107:D_N 8.5662e-05
25 *213:49 *4120:D_N 0.000196269
26 *213:49 *4265:B 3.34366e-05
27 *213:49 *4274:C 0.000130583
28 *213:49 *275:10 0
29 *213:49 *275:12 0
30 *213:49 *286:25 8.98897e-05
31 *213:49 *286:31 0.000153054
32 *213:49 *376:6 6.87574e-05
33 *213:49 *391:25 3.34295e-05
34 *213:49 *419:12 0
35 *4263:B1 *4267:A 0
36 *4265:D *213:8 3.14193e-05
37 *4269:B1 *4267:A 0
38 *4269:B1 *4268:B 0.000188586
39 *4462:A *4267:A 6.48068e-05
*RES
1 *4265:X *213:4 9.3 
2 *213:4 *213:8 9.96429 
3 *213:8 *4267:A 21.2107 
4 *213:8 *213:19 1.64286 
5 *213:19 *4269:A2 14.3357 
6 *213:19 *4268:B 18.0857 
7 *213:4 *213:49 13.875 
8 *213:49 *4271:C 14.4071 
9 *213:49 *4274:D 18.175 
*END

*D_NET *214 0.0010817
*CONN
*I *4461:A I *D sky130_fd_sc_hd__dlygate4sd3_1
*I *4266:Y O *D sky130_fd_sc_hd__o21ai_1
*CAP
1 *4461:A 0.000243426
2 *4266:Y 0.000243426
3 *4461:A *4264:B 9.80173e-05
4 *4495:A *4461:A 0.000312215
5 *140:132 *4461:A 0.000184619
*RES
1 *4266:Y *4461:A 24.0821 
*END

*D_NET *215 0.0016455
*CONN
*I *4272:A2 I *D sky130_fd_sc_hd__o21ai_1
*I *4270:A I *D sky130_fd_sc_hd__nor2_1
*I *4268:X O *D sky130_fd_sc_hd__and2_1
*CAP
1 *4272:A2 0.000308419
2 *4270:A 0.00018305
3 *4268:X 0.000213756
4 *215:10 0.000705226
5 *4272:A2 *4272:A1 5.71472e-05
6 *4272:A2 *217:10 9.24825e-05
7 *215:10 *4270:B 0
8 *215:10 *4274:C 0
9 *215:10 *4503:A 6.74911e-05
10 *215:10 *286:31 0
11 *215:10 *419:12 0
12 *4271:C *4272:A2 1.79251e-05
13 *4505:A *215:10 0
*RES
1 *4268:X *215:10 22.3714 
2 *215:10 *4270:A 12.4429 
3 *215:10 *4272:A2 15.175 
*END

*D_NET *216 0.000556726
*CONN
*I *4503:A I *D sky130_fd_sc_hd__dlygate4sd3_1
*I *4269:Y O *D sky130_fd_sc_hd__o21ai_1
*CAP
1 *4503:A 0.000239747
2 *4269:Y 0.000239747
3 *4503:A *4270:B 3.69047e-06
4 *4503:A *4388:D 0
5 *4503:A *419:12 6.05161e-06
6 *215:10 *4503:A 6.74911e-05
*RES
1 *4269:Y *4503:A 31.8321 
*END

*D_NET *217 0.00103584
*CONN
*I *4275:A2 I *D sky130_fd_sc_hd__o21ai_1
*I *4273:A I *D sky130_fd_sc_hd__nor2_1
*I *4271:X O *D sky130_fd_sc_hd__and3_1
*CAP
1 *4275:A2 0.000188537
2 *4273:A 0
3 *4271:X 0.000225784
4 *217:10 0.000414321
5 *4275:A2 *4274:B 0
6 *4275:A2 *4274:C 0
7 *217:10 *4274:C 0
8 *217:10 *4389:D 3.5707e-05
9 *4272:A2 *217:10 9.24825e-05
10 *4275:B1 *4275:A2 5.33433e-05
11 *4477:A *217:10 2.56694e-05
*RES
1 *4271:X *217:10 17.6214 
2 *217:10 *4273:A 13.8 
3 *217:10 *4275:A2 16.6929 
*END

*D_NET *218 0.000408411
*CONN
*I *4476:A I *D sky130_fd_sc_hd__dlygate4sd3_1
*I *4272:Y O *D sky130_fd_sc_hd__o21ai_1
*CAP
1 *4476:A 0.000131577
2 *4272:Y 0.000131577
3 *4476:A *274:8 7.77652e-05
4 *4476:A *275:10 6.74911e-05
5 *4476:A *391:25 0
*RES
1 *4272:Y *4476:A 30.6 
*END

*D_NET *219 0.00409112
*CONN
*I *4276:A I *D sky130_fd_sc_hd__nor2_1
*I *4279:A2 I *D sky130_fd_sc_hd__a21o_1
*I *4277:A2 I *D sky130_fd_sc_hd__o21ai_1
*I *4280:C I *D sky130_fd_sc_hd__nand3_1
*I *4278:A2 I *D sky130_fd_sc_hd__a21oi_1
*I *4274:X O *D sky130_fd_sc_hd__and4_1
*CAP
1 *4276:A 0.000273417
2 *4279:A2 7.58631e-05
3 *4277:A2 0
4 *4280:C 0.000210474
5 *4278:A2 2.03441e-05
6 *4274:X 9.04722e-06
7 *219:39 0.000454398
8 *219:19 0.000298227
9 *219:17 0.000287974
10 *219:6 0.000124494
11 *4276:A *275:10 0
12 *4276:A *276:10 0.000175493
13 *4276:A *344:10 0.000153054
14 *4278:A2 *4430:A 0
15 *4279:A2 *4279:A1 9.71197e-05
16 *4280:C *4280:B 0.000562412
17 *219:6 *262:8 3.18676e-05
18 *219:17 *262:6 0.000166485
19 *219:17 *262:8 9.76491e-05
20 *219:19 *4280:B 1.02504e-05
21 *219:19 *344:14 0.000187733
22 *219:39 *275:10 0
23 *219:39 *344:10 2.31791e-05
24 *219:39 *344:12 9.40095e-05
25 *219:39 *344:14 7.90803e-05
26 *4275:B1 *4278:A2 5.7661e-06
27 *4275:B1 *219:6 3.18676e-05
28 *4275:B1 *219:17 6.42778e-05
29 *4275:B1 *219:19 6.19181e-05
30 *4455:A *4276:A 0
31 *4598:A *4276:A 2.78729e-05
32 *4598:A *219:17 0.000357048
33 *140:89 *4280:C 9.80029e-05
34 *140:89 *219:19 1.17968e-05
*RES
1 *4274:X *219:6 9.83571 
2 *219:6 *4278:A2 9.72857 
3 *219:6 *219:17 9.14286 
4 *219:17 *219:19 2.55357 
5 *219:19 *4280:C 20.2821 
6 *219:19 *4277:A2 13.8 
7 *219:17 *219:39 2.55357 
8 *219:39 *4279:A2 15.1571 
9 *219:39 *4276:A 20.4786 
*END

*D_NET *220 0.000760137
*CONN
*I *4454:A I *D sky130_fd_sc_hd__dlygate4sd3_1
*I *4275:Y O *D sky130_fd_sc_hd__o21ai_1
*CAP
1 *4454:A 0.000278651
2 *4275:Y 0.000278651
3 *4454:A *4390:CLK 0
4 *4454:A *4390:D 0.000202835
5 *4454:A *369:12 0
*RES
1 *4275:Y *4454:A 33.0286 
*END

*D_NET *221 0.000968144
*CONN
*I *4278:B1 I *D sky130_fd_sc_hd__a21oi_1
*I *4277:Y O *D sky130_fd_sc_hd__o21ai_1
*CAP
1 *4278:B1 0.000325821
2 *4277:Y 0.000325821
3 *4278:B1 *274:8 0.00014183
4 *4278:B1 *275:10 0.00014576
5 *4274:D *4278:B1 0
6 *140:81 *4278:B1 2.89114e-05
*RES
1 *4277:Y *4278:B1 32.5464 
*END

*D_NET *222 0.000577375
*CONN
*I *4281:B I *D sky130_fd_sc_hd__and3_1
*I *4279:X O *D sky130_fd_sc_hd__a21o_1
*CAP
1 *4281:B 0.000225602
2 *4279:X 0.000225602
3 *4281:B *4279:B1 7.83659e-05
4 *4281:B *4280:A 0
5 *4281:B *262:73 4.78056e-05
6 *4281:B *344:14 0
7 *4598:A *4281:B 0
*RES
1 *4279:X *4281:B 31.6 
*END

*D_NET *223 0.00050233
*CONN
*I *4485:A I *D sky130_fd_sc_hd__dlygate4sd3_1
*I *4280:Y O *D sky130_fd_sc_hd__nand3_1
*CAP
1 *4485:A 0.000115075
2 *4280:Y 0.000115075
3 *4485:A *4280:A 0.000125724
4 *4486:A *4485:A 7.32272e-05
5 *140:72 *4485:A 7.32272e-05
*RES
1 *4280:Y *4485:A 30.6 
*END

*D_NET *224 0.000671859
*CONN
*I *4286:B I *D sky130_fd_sc_hd__nor2_1
*I *4285:X O *D sky130_fd_sc_hd__a2111o_1
*CAP
1 *4286:B 0.000153739
2 *4285:X 0.000153739
3 *4286:B *4285:C1 3.80613e-05
4 *4286:B *265:12 0.000148903
5 *4286:B *265:51 2.89016e-05
6 *4146:B *4286:B 5.24274e-05
7 *100:123 *4286:B 0
8 *100:127 *4286:B 0
9 *141:10 *4286:B 9.60875e-05
*RES
1 *4285:X *4286:B 31.0286 
*END

*D_NET *225 0.0079211
*CONN
*I *4293:B I *D sky130_fd_sc_hd__and3b_1
*I *4298:A I *D sky130_fd_sc_hd__and2_1
*I *4296:B I *D sky130_fd_sc_hd__and3b_1
*I *4290:B I *D sky130_fd_sc_hd__and3b_1
*I *4286:Y O *D sky130_fd_sc_hd__nor2_1
*CAP
1 *4293:B 0.000252797
2 *4298:A 0.000677835
3 *4296:B 0
4 *4290:B 0.000677388
5 *4286:Y 0.000552516
6 *225:33 0.00128273
7 *225:12 0.00129596
8 *225:10 0.00081899
9 *4290:B *4290:A_N 0.000142856
10 *4290:B *4290:C 4.0342e-06
11 *4290:B *4402:CLK 0.000111227
12 *4290:B *230:14 2.86754e-05
13 *4290:B *265:18 2.59355e-05
14 *4293:B *4137:D_N 1.54108e-05
15 *4293:B *4293:A_N 7.39275e-05
16 *4298:A *4298:B 0.00036192
17 *4298:A *4402:CLK 7.61932e-05
18 *225:10 *4125:B 0.000239878
19 *225:10 *4285:C1 4.10026e-05
20 *225:10 *4293:C 0
21 *225:10 *4294:B 2.39876e-05
22 *225:10 *4298:B 0
23 *225:10 *230:14 2.7728e-05
24 *225:10 *265:12 0
25 *225:10 *362:47 0.000101545
26 *225:10 *372:21 0
27 *225:12 *230:14 7.69776e-06
28 *225:33 *4296:C 2.92136e-05
29 *225:33 *4297:B 0
30 *225:33 *4514:A 2.8266e-06
31 *574:DIODE *4298:A 0.000504606
32 *4138:A *225:10 0
33 *4401:D *4290:B 1.00073e-05
34 *4402:D *4298:A 3.52992e-05
35 *4458:A *225:10 0.000102932
36 *4507:A *225:10 0
37 *4513:A *4298:A 0.000341032
38 *135:8 *225:10 0
39 *141:10 *225:10 5.49544e-05
*RES
1 *4286:Y *225:10 23.8 
2 *225:10 *225:12 0.276786 
3 *225:12 *4290:B 22.6125 
4 *225:12 *225:33 13.1878 
5 *225:33 *4296:B 9.3 
6 *225:33 *4298:A 33.2643 
7 *225:10 *4293:B 16.8 
*END

*D_NET *226 0.00504784
*CONN
*I *4337:B1 I *D sky130_fd_sc_hd__o221a_1
*I *4289:C I *D sky130_fd_sc_hd__and3_1
*I *4300:C I *D sky130_fd_sc_hd__or3_1
*I *4288:A2 I *D sky130_fd_sc_hd__a21o_1
*I *4287:X O *D sky130_fd_sc_hd__or2_1
*CAP
1 *4337:B1 0.000770807
2 *4289:C 0
3 *4300:C 0
4 *4288:A2 9.75683e-05
5 *4287:X 8.27988e-05
6 *226:32 0.000858224
7 *226:21 0.000292308
8 *226:6 0.000385258
9 *4288:A2 *4301:B 8.39e-05
10 *4288:A2 *4511:A 0
11 *4337:B1 *4337:B2 7.7301e-06
12 *4337:B1 *4342:D 0.000151333
13 *4337:B1 *259:53 0.000124816
14 *4337:B1 *265:10 0.000177898
15 *4337:B1 *265:12 0.0001944
16 *4337:B1 *362:47 0
17 *4337:B1 *362:70 9.60875e-05
18 *4337:B1 *367:14 0.000151619
19 *4337:B1 *367:22 8.29063e-05
20 *226:6 *4511:A 0.000186662
21 *226:21 *4300:A 7.32955e-05
22 *226:21 *4301:B 0.000318107
23 *226:21 *4511:A 5.52302e-05
24 *226:21 *367:14 0
25 *226:21 *367:22 1.74903e-05
26 *226:21 *427:12 0.000171023
27 *226:32 *367:22 0.000113769
28 *4147:B1 *4337:B1 0.000146474
29 *4337:A2 *4337:B1 0.000145022
30 *4337:C1 *4337:B1 0.000214327
31 *4507:A *4337:B1 4.87854e-05
*RES
1 *4287:X *226:6 11.0679 
2 *226:6 *4288:A2 20.55 
3 *226:6 *226:21 6.19643 
4 *226:21 *4300:C 9.3 
5 *226:21 *226:32 2.05357 
6 *226:32 *4289:C 9.3 
7 *226:32 *4337:B1 36.6214 
*END

*D_NET *227 0.000594721
*CONN
*I *4498:A I *D sky130_fd_sc_hd__dlygate4sd3_1
*I *4288:X O *D sky130_fd_sc_hd__a21o_1
*CAP
1 *4498:A 0.000264446
2 *4288:X 0.000264446
3 *4498:A *4301:B 6.58289e-05
4 *4498:A *4400:D 0
5 *4499:A *4498:A 0
*RES
1 *4288:X *4498:A 32.6179 
*END

*D_NET *228 0.00357057
*CONN
*I *4290:A_N I *D sky130_fd_sc_hd__and3b_1
*I *4292:B I *D sky130_fd_sc_hd__and2_1
*I *4295:C I *D sky130_fd_sc_hd__and3_1
*I *4291:B I *D sky130_fd_sc_hd__or2_1
*I *4289:X O *D sky130_fd_sc_hd__and3_1
*CAP
1 *4290:A_N 4.98232e-05
2 *4292:B 0
3 *4295:C 0.000282306
4 *4291:B 0
5 *4289:X 0.000271065
6 *228:21 0.000323146
7 *228:14 0.000652116
8 *228:8 0.000932164
9 *4295:C *4291:A 4.41976e-05
10 *4295:C *4295:B 4.06782e-05
11 *4295:C *4514:A 4.46186e-06
12 *4295:C *232:14 0.000138124
13 *4295:C *431:8 5.33005e-05
14 *228:8 *4497:A 6.74911e-05
15 *228:8 *265:12 0
16 *228:8 *265:18 0
17 *228:14 *4291:A 0.000100684
18 *228:14 *4293:C 0.000126024
19 *228:21 *4291:A 0.000143375
20 *4132:A3 *228:8 5.80706e-06
21 *4290:B *4290:A_N 0.000142856
22 *4401:D *228:8 0
23 *4401:D *228:14 0
24 *4499:A *228:8 0.000100498
25 *100:127 *228:8 0
26 *130:68 *228:8 9.24491e-05
*RES
1 *4289:X *228:8 19.9964 
2 *228:8 *228:14 15.6964 
3 *228:14 *4291:B 9.3 
4 *228:14 *228:21 1.35714 
5 *228:21 *4295:C 24.1571 
6 *228:21 *4292:B 9.3 
7 *228:8 *4290:A_N 15.1571 
*END

*D_NET *229 0.00118011
*CONN
*I *4293:C I *D sky130_fd_sc_hd__and3b_1
*I *4291:X O *D sky130_fd_sc_hd__or2_1
*CAP
1 *4293:C 0.000398018
2 *4291:X 0.000398018
3 *4293:C *4125:B 0
4 *4293:C *230:14 0
5 *4293:C *265:12 3.34366e-05
6 *4293:C *265:18 0.000198698
7 *4401:D *4293:C 2.59093e-05
8 *225:10 *4293:C 0
9 *228:14 *4293:C 0.000126024
*RES
1 *4291:X *4293:C 34.4571 
*END

*D_NET *230 0.00377973
*CONN
*I *4294:B I *D sky130_fd_sc_hd__or2_1
*I *4293:A_N I *D sky130_fd_sc_hd__and3b_1
*I *4292:X O *D sky130_fd_sc_hd__and2_1
*CAP
1 *4294:B 0.000866223
2 *4293:A_N 7.32188e-05
3 *4292:X 0.000356977
4 *230:14 0.00129642
5 *4293:A_N *4125:B 0.000139632
6 *4293:A_N *4137:D_N 3.18747e-05
7 *4294:B *4125:A 8.55687e-05
8 *4294:B *4125:B 9.83442e-05
9 *4294:B *4137:A 5.49489e-05
10 *4294:B *4137:B 2.24763e-05
11 *4294:B *4294:A 0.00018227
12 *4294:B *310:14 4.01264e-05
13 *4294:B *372:6 0.000112544
14 *4294:B *422:6 1.39841e-05
15 *230:14 *4291:A 0.000100261
16 *230:14 *232:14 0
17 *230:14 *310:14 0
18 *527:DIODE *4294:B 0.00014285
19 *4290:B *230:14 2.86754e-05
20 *4293:B *4293:A_N 7.39275e-05
21 *4293:C *230:14 0
22 *225:10 *4294:B 2.39876e-05
23 *225:10 *230:14 2.7728e-05
24 *225:12 *230:14 7.69776e-06
*RES
1 *4292:X *230:14 19.4786 
2 *230:14 *4293:A_N 15.9786 
3 *230:14 *4294:B 26.7286 
*END

*D_NET *231 0.00214274
*CONN
*I *4296:C I *D sky130_fd_sc_hd__and3b_1
*I *4294:X O *D sky130_fd_sc_hd__or2_1
*CAP
1 *4296:C 0.00074369
2 *4294:X 0.00074369
3 *4296:C *4137:B 0.000419949
4 *4296:C *4294:A 8.80589e-05
5 *4296:C *4295:A 0
6 *4296:C *4402:CLK 9.90367e-05
7 *4296:C *4514:A 0
8 *4402:D *4296:C 1.91004e-05
9 *225:33 *4296:C 2.92136e-05
*RES
1 *4294:X *4296:C 38.4393 
*END

*D_NET *232 0.00233986
*CONN
*I *4297:B I *D sky130_fd_sc_hd__xor2_1
*I *4296:A_N I *D sky130_fd_sc_hd__and3b_1
*I *4295:X O *D sky130_fd_sc_hd__and3_1
*CAP
1 *4297:B 0.000393188
2 *4296:A_N 0
3 *4295:X 0.000409869
4 *232:14 0.000803057
5 *4297:B *4125:A 0
6 *4297:B *4139:B2 5.83233e-05
7 *4297:B *4514:A 3.34295e-05
8 *4297:B *310:14 0.000120724
9 *4297:B *372:21 9.66578e-05
10 *232:14 *4514:A 8.54613e-05
11 *527:DIODE *4297:B 0
12 *528:DIODE *4297:B 1.58163e-05
13 *4295:C *232:14 0.000138124
14 *100:135 *4297:B 1.21258e-05
15 *135:8 *4297:B 0.000173083
16 *225:33 *4297:B 0
17 *230:14 *232:14 0
*RES
1 *4295:X *232:14 20.4964 
2 *232:14 *4296:A_N 13.8 
3 *232:14 *4297:B 21.3893 
*END

*D_NET *233 0.00206601
*CONN
*I *4298:B I *D sky130_fd_sc_hd__and2_1
*I *4297:X O *D sky130_fd_sc_hd__xor2_1
*CAP
1 *4298:B 0.000576851
2 *4297:X 0.000576851
3 *4298:B *4139:A1 9.60939e-05
4 *4298:B *4139:B2 5.52238e-05
5 *4298:B *367:6 9.60939e-05
6 *4298:A *4298:B 0.00036192
7 *4607:A *4298:B 0.000179628
8 *135:8 *4298:B 0.000123352
9 *225:10 *4298:B 0
*RES
1 *4297:X *4298:B 39.7786 
*END

*D_NET *234 0.00741472
*CONN
*I *4301:A_N I *D sky130_fd_sc_hd__and3b_1
*I *4303:A2 I *D sky130_fd_sc_hd__a21oi_1
*I *4304:A2 I *D sky130_fd_sc_hd__a21o_1
*I *4302:A2 I *D sky130_fd_sc_hd__o21ai_1
*I *4310:A2 I *D sky130_fd_sc_hd__a31o_1
*I *4311:C I *D sky130_fd_sc_hd__and4_1
*I *4306:A I *D sky130_fd_sc_hd__and2_1
*I *4299:X O *D sky130_fd_sc_hd__o31a_2
*CAP
1 *4301:A_N 5.43442e-05
2 *4303:A2 0
3 *4304:A2 0.000575361
4 *4302:A2 0
5 *4310:A2 0
6 *4311:C 0
7 *4306:A 5.13119e-05
8 *4299:X 0.000149319
9 *234:64 0.000939464
10 *234:53 0.00048789
11 *234:28 9.52819e-05
12 *234:26 0.000635427
13 *234:10 0.000778702
14 *234:8 0.000267121
15 *4301:A_N *4127:C 0.00018372
16 *4301:A_N *4301:B 2.14658e-05
17 *4304:A2 *4303:B1 4.1331e-06
18 *4304:A2 *4304:A1 5.71472e-05
19 *4304:A2 *4406:D 5.71472e-05
20 *4304:A2 *4473:A 7.41433e-05
21 *4306:A *4306:B 8.64974e-05
22 *4306:A *4311:D 1.44193e-05
23 *4306:A *238:16 1.69961e-05
24 *234:8 *4127:C 0.000303486
25 *234:8 *4303:B1 0
26 *234:8 *4511:A 0
27 *234:10 *4127:C 3.17148e-05
28 *234:10 *4303:B1 0
29 *234:10 *264:14 0
30 *234:26 *4127:D_N 4.99508e-05
31 *234:26 *4310:B1 5.7661e-06
32 *234:26 *4405:D 2.40379e-05
33 *234:26 *264:14 0
34 *234:26 *353:10 9.25014e-06
35 *234:26 *388:8 9.43319e-05
36 *234:26 *407:12 5.52238e-05
37 *234:26 *407:14 0.000180777
38 *234:26 *446:8 0.00044468
39 *234:28 *4311:B 0.000186662
40 *234:28 *238:14 4.18895e-05
41 *234:28 *238:16 0.000276211
42 *234:28 *353:16 9.90431e-05
43 *234:53 *4301:B 0.000184745
44 *234:64 *4301:B 0.000137983
45 *234:64 *4302:A1 3.69697e-05
46 *234:64 *4303:B1 0.000169801
47 *234:64 *4515:A 4.79842e-05
48 *4302:B1 *4301:A_N 5.33005e-05
49 *4404:D *234:8 0.000100823
50 *144:60 *4306:A 0.000198291
51 *144:60 *234:26 2.32993e-05
52 *144:60 *234:28 1.69961e-05
53 *144:95 *4301:A_N 9.16074e-05
*RES
1 *4299:X *234:8 17.8714 
2 *234:8 *234:10 1.03571 
3 *234:10 *234:26 24.7679 
4 *234:26 *234:28 3 
5 *234:28 *4306:A 11.925 
6 *234:28 *4311:C 9.3 
7 *234:26 *4310:A2 9.3 
8 *234:10 *234:53 6.26786 
9 *234:53 *4302:A2 9.3 
10 *234:53 *234:64 12.6607 
11 *234:64 *4304:A2 23.8179 
12 *234:64 *4303:A2 13.8 
13 *234:8 *4301:A_N 15.9786 
*END

*D_NET *235 0.00258822
*CONN
*I *4301:B I *D sky130_fd_sc_hd__and3b_1
*I *4300:X O *D sky130_fd_sc_hd__or3_1
*CAP
1 *4301:B 0.000853284
2 *4300:X 0.000853284
3 *4301:B *4127:C 1.33343e-05
4 *4301:B *4303:B1 2.32517e-05
5 *4288:A2 *4301:B 8.39e-05
6 *4301:A_N *4301:B 2.14658e-05
7 *4302:B1 *4301:B 3.30352e-05
8 *4498:A *4301:B 6.58289e-05
9 *226:21 *4301:B 0.000318107
10 *234:53 *4301:B 0.000184745
11 *234:64 *4301:B 0.000137983
*RES
1 *4300:X *4301:B 43.225 
*END

*D_NET *236 0.00146853
*CONN
*I *4303:B1 I *D sky130_fd_sc_hd__a21oi_1
*I *4302:Y O *D sky130_fd_sc_hd__o21ai_1
*CAP
1 *4303:B1 0.000391617
2 *4302:Y 0.000391617
3 *4303:B1 *4302:A1 0.000148189
4 *4303:B1 *4406:CLK 0
5 *4303:B1 *264:14 0
6 *4301:B *4303:B1 2.32517e-05
7 *4302:B1 *4303:B1 1.33343e-05
8 *4304:A2 *4303:B1 4.1331e-06
9 *4404:D *4303:B1 4.1331e-06
10 *4517:A *4303:B1 0.000322453
11 *234:8 *4303:B1 0
12 *234:10 *4303:B1 0
13 *234:64 *4303:B1 0.000169801
*RES
1 *4302:Y *4303:B1 36.8679 
*END

*D_NET *237 0.00135775
*CONN
*I *4473:A I *D sky130_fd_sc_hd__dlygate4sd3_1
*I *4304:X O *D sky130_fd_sc_hd__a21o_1
*CAP
1 *4473:A 0.000417993
2 *4304:X 0.000417993
3 *4473:A *4304:A1 0.000146842
4 *4473:A *4406:CLK 0
5 *4473:A *446:10 0.000123912
6 *4304:A2 *4473:A 7.41433e-05
7 *4309:C1 *4473:A 0.0001399
8 *4474:A *4473:A 3.69697e-05
*RES
1 *4304:X *4473:A 35.0821 
*END

*D_NET *238 0.00279049
*CONN
*I *4310:A3 I *D sky130_fd_sc_hd__a31o_1
*I *4311:D I *D sky130_fd_sc_hd__and4_1
*I *4306:B I *D sky130_fd_sc_hd__and2_1
*I *4305:X O *D sky130_fd_sc_hd__and2_1
*CAP
1 *4310:A3 0
2 *4311:D 1.02833e-05
3 *4306:B 4.48308e-05
4 *4305:X 0.000362699
5 *238:16 9.0365e-05
6 *238:14 0.00039795
7 *4306:B *4128:B 0.000232399
8 *238:14 *4127:D_N 0.000215341
9 *238:14 *4310:B1 5.71472e-05
10 *238:14 *4491:A 0
11 *238:14 *353:16 2.14658e-05
12 *238:14 *388:23 3.69772e-05
13 *238:14 *407:12 5.01213e-05
14 *238:14 *407:14 0.00018077
15 *238:16 *4128:B 0.000188586
16 *238:16 *407:14 0.000131439
17 *4131:A *238:14 2.56601e-05
18 *4306:A *4306:B 8.64974e-05
19 *4306:A *4311:D 1.44193e-05
20 *4306:A *238:16 1.69961e-05
21 *130:10 *238:14 0.000227539
22 *144:24 *238:14 0
23 *144:60 *4306:B 7.06071e-05
24 *144:60 *238:14 1.02936e-05
25 *234:28 *238:14 4.18895e-05
26 *234:28 *238:16 0.000276211
*RES
1 *4305:X *238:14 26.3179 
2 *238:14 *238:16 3 
3 *238:16 *4306:B 11.9071 
4 *238:16 *4311:D 9.72857 
5 *238:14 *4310:A3 9.3 
*END

*D_NET *239 0.00279478
*CONN
*I *4308:B I *D sky130_fd_sc_hd__nand2_1
*I *4307:A_N I *D sky130_fd_sc_hd__and3b_1
*I *4309:A2 I *D sky130_fd_sc_hd__o211a_1
*I *4306:X O *D sky130_fd_sc_hd__and2_1
*CAP
1 *4308:B 0
2 *4307:A_N 3.08471e-05
3 *4309:A2 4.57313e-05
4 *4306:X 0.00030511
5 *239:20 0.000392063
6 *239:12 0.000620594
7 *4307:A_N *264:41 1.58163e-05
8 *4309:A2 *4309:B1 0.000177941
9 *4309:A2 *353:29 0.000176234
10 *239:12 *4308:A 5.80706e-06
11 *239:12 *4317:A2 1.24368e-05
12 *239:12 *4408:CLK 0.000317609
13 *239:12 *4591:A 1.15281e-05
14 *239:12 *4606:A 0
15 *239:12 *242:14 3.61629e-06
16 *239:20 *4318:B 1.3701e-05
17 *239:20 *4407:D 1.64343e-05
18 *239:20 *4408:CLK 7.61932e-05
19 *239:20 *4606:A 0.000225082
20 *239:20 *264:41 0.000240371
21 *4592:A *239:12 6.74911e-05
22 *144:60 *239:12 4.01768e-05
*RES
1 *4306:X *239:12 24.4429 
2 *239:12 *239:20 8.5 
3 *239:20 *4309:A2 20.55 
4 *239:20 *4307:A_N 9.83571 
5 *239:12 *4308:B 9.3 
*END

*D_NET *240 0.0010527
*CONN
*I *4606:A I *D sky130_fd_sc_hd__dlygate4sd3_1
*I *4308:Y O *D sky130_fd_sc_hd__nand2_1
*CAP
1 *4606:A 0.000400744
2 *4308:Y 0.000400744
3 *4606:A *4308:A 0
4 *4606:A *4407:D 2.61255e-05
5 *4606:A *353:29 0
6 *4592:A *4606:A 0
7 *239:12 *4606:A 0
8 *239:20 *4606:A 0.000225082
*RES
1 *4308:Y *4606:A 33.7607 
*END

*D_NET *241 0.00129178
*CONN
*I *4491:A I *D sky130_fd_sc_hd__dlygate4sd3_1
*I *4310:X O *D sky130_fd_sc_hd__a31o_1
*CAP
1 *4491:A 0.000466987
2 *4310:X 0.000466987
3 *4491:A *4127:D_N 0
4 *4491:A *4128:B 0.00010096
5 *4491:A *4408:D 0
6 *4491:A *407:14 5.71472e-05
7 *4131:D *4491:A 0.000199698
8 *238:14 *4491:A 0
*RES
1 *4310:X *4491:A 35.4571 
*END

*D_NET *242 0.00535679
*CONN
*I *4316:C I *D sky130_fd_sc_hd__and3_1
*I *4313:B I *D sky130_fd_sc_hd__and2_1
*I *4314:A2 I *D sky130_fd_sc_hd__o21ai_1
*I *4319:D I *D sky130_fd_sc_hd__and4_1
*I *4312:A_N I *D sky130_fd_sc_hd__and3b_1
*I *4311:X O *D sky130_fd_sc_hd__and4_1
*CAP
1 *4316:C 0
2 *4313:B 4.98426e-05
3 *4314:A2 0.000117731
4 *4319:D 1.66742e-05
5 *4312:A_N 0
6 *4311:X 0.000587201
7 *242:48 0.000718425
8 *242:29 0.000609985
9 *242:27 0.000123737
10 *242:14 0.000668479
11 *4313:B *4409:CLK 7.83659e-05
12 *4313:B *243:10 5.80706e-06
13 *4319:D *4316:B 1.40306e-05
14 *4319:D *4319:B 5.52238e-05
15 *242:14 *4128:B 0.000142856
16 *242:14 *4317:A1 9.16074e-05
17 *242:14 *4318:A 0.00010258
18 *242:14 *4591:A 0.000227539
19 *242:14 *519:19 0.000125724
20 *242:27 *4318:A 9.44554e-05
21 *242:27 *4319:B 6.8148e-05
22 *242:27 *519:23 0.00014285
23 *242:29 *4316:B 1.90111e-05
24 *242:29 *4318:A 3.14193e-05
25 *242:29 *4319:B 0.0001761
26 *242:48 *4129:D 1.99099e-05
27 *242:48 *4320:A2 6.42338e-05
28 *242:48 *4410:CLK 1.39726e-05
29 *242:48 *4587:A 0
30 *242:48 *247:8 3.34295e-05
31 *242:48 *516:14 0.000317003
32 *242:48 *516:34 0.000146495
33 *242:48 *516:45 4.58192e-05
34 *242:48 *519:19 0
35 *4314:B1 *4313:B 0
36 *4334:A *242:14 2.49484e-05
37 *4589:A *4314:A2 0.000186662
38 *4589:A *242:48 0.00015152
39 *144:60 *242:14 8.13914e-05
40 *239:12 *242:14 3.61629e-06
*RES
1 *4311:X *242:14 27.5857 
2 *242:14 *4312:A_N 9.3 
3 *242:14 *242:27 3.23214 
4 *242:27 *242:29 1.69643 
5 *242:29 *4319:D 9.83571 
6 *242:29 *242:48 20.5 
7 *242:48 *4314:A2 11.0679 
8 *242:48 *4313:B 19.3357 
9 *242:27 *4316:C 9.3 
*END

*D_NET *243 0.00357324
*CONN
*I *4317:A2 I *D sky130_fd_sc_hd__o21ai_1
*I *4315:A I *D sky130_fd_sc_hd__nor2_1
*I *4313:X O *D sky130_fd_sc_hd__and2_1
*CAP
1 *4317:A2 0.000829753
2 *4315:A 0.000314853
3 *4313:X 9.05231e-05
4 *243:10 0.00123513
5 *4315:A *4315:B 0.000290148
6 *4317:A2 *4315:B 0.000230482
7 *4317:A2 *4317:A1 0.000196723
8 *4317:A2 *4320:A1 0.000207478
9 *4317:A2 *4320:A2 8.87062e-05
10 *4317:A2 *4591:A 1.56e-05
11 *243:10 *4409:CLK 7.79781e-06
12 *243:10 *261:46 4.78056e-05
13 *4313:B *243:10 5.80706e-06
14 *4314:B1 *243:10 0
15 *144:60 *4317:A2 0
16 *239:12 *4317:A2 1.24368e-05
*RES
1 *4313:X *243:10 19.9429 
2 *243:10 *4315:A 22.9429 
3 *243:10 *4317:A2 23.55 
*END

*D_NET *244 0.00171753
*CONN
*I *4588:A I *D sky130_fd_sc_hd__dlygate4sd3_1
*I *4314:Y O *D sky130_fd_sc_hd__o21ai_1
*CAP
1 *4588:A 0.000515
2 *4314:Y 0.000515
3 *4588:A *4320:A1 9.25014e-06
4 *4588:A *4410:CLK 0.00036192
5 *4588:A *261:46 0.000225616
6 *4588:A *516:14 3.92854e-05
7 *4588:A *516:34 2.49484e-05
8 *4589:A *4588:A 2.65105e-05
*RES
1 *4314:Y *4588:A 35.5286 
*END

*D_NET *245 0.00340288
*CONN
*I *4318:A I *D sky130_fd_sc_hd__nor2_1
*I *4320:A2 I *D sky130_fd_sc_hd__o21ai_1
*I *4316:X O *D sky130_fd_sc_hd__and3_1
*CAP
1 *4318:A 0.000626067
2 *4320:A2 0.000319438
3 *4316:X 0
4 *245:4 0.000945506
5 *4318:A *4316:B 9.90431e-05
6 *4318:A *4318:B 5.71472e-05
7 *4318:A *4408:CLK 0
8 *4318:A *4587:A 0
9 *4318:A *4591:A 0.00024942
10 *4320:A2 *4320:A1 0.000168057
11 *4320:A2 *4524:A 0.000404707
12 *4320:A2 *519:19 0
13 *4317:A2 *4320:A2 8.87062e-05
14 *4334:A *4318:A 9.25014e-06
15 *144:148 *4320:A2 0.00014285
16 *242:14 *4318:A 0.00010258
17 *242:27 *4318:A 9.44554e-05
18 *242:29 *4318:A 3.14193e-05
19 *242:48 *4320:A2 6.42338e-05
*RES
1 *4316:X *245:4 9.3 
2 *245:4 *4320:A2 26.6393 
3 *245:4 *4318:A 30.425 
*END

*D_NET *246 0.00169179
*CONN
*I *4591:A I *D sky130_fd_sc_hd__dlygate4sd3_1
*I *4317:Y O *D sky130_fd_sc_hd__o21ai_1
*CAP
1 *4591:A 0.000395791
2 *4317:Y 0.000395791
3 *4591:A *4317:A1 0.000140933
4 *4591:A *4318:B 2.44318e-05
5 *4591:A *4408:CLK 0.000103307
6 *4591:A *4590:A 0.000127446
7 *4317:A2 *4591:A 1.56e-05
8 *4318:A *4591:A 0.00024942
9 *239:12 *4591:A 1.15281e-05
10 *242:14 *4591:A 0.000227539
*RES
1 *4317:Y *4591:A 38.475 
*END

*D_NET *247 0.0064573
*CONN
*I *4327:D I *D sky130_fd_sc_hd__and4_2
*I *4325:C I *D sky130_fd_sc_hd__and3_1
*I *4324:A2 I *D sky130_fd_sc_hd__a21o_1
*I *4323:A2 I *D sky130_fd_sc_hd__a21oi_1
*I *4322:A2 I *D sky130_fd_sc_hd__o21ai_1
*I *4321:A I *D sky130_fd_sc_hd__nor2_1
*I *4319:X O *D sky130_fd_sc_hd__and4_1
*CAP
1 *4327:D 0.000317993
2 *4325:C 0.000150095
3 *4324:A2 0.000179055
4 *4323:A2 0
5 *4322:A2 0.000457391
6 *4321:A 8.56888e-05
7 *4319:X 9.6645e-05
8 *247:60 0.000662609
9 *247:29 0.000480555
10 *247:25 0.000357317
11 *247:12 0.000790768
12 *247:8 0.000841148
13 *4322:A2 *4322:A1 9.04577e-05
14 *4322:A2 *458:46 7.48301e-06
15 *4324:A2 *4324:B1 1.33343e-05
16 *4324:A2 *4326:C 4.15914e-05
17 *4324:A2 *4413:CLK 1.5424e-05
18 *4324:A2 *261:36 5.33334e-05
19 *4324:A2 *261:40 0.000116481
20 *4325:C *4325:A 0.000127617
21 *4325:C *4325:B 2.18999e-05
22 *4325:C *251:12 0.000170964
23 *4327:D *4129:A 0
24 *4327:D *4324:B1 0
25 *4327:D *4327:B 7.56152e-05
26 *4327:D *4335:A3 0
27 *4327:D *4500:A 0.000198279
28 *4327:D *252:6 7.43578e-06
29 *4327:D *252:62 6.12335e-05
30 *247:8 *4129:D 2.83916e-05
31 *247:8 *519:19 0
32 *247:12 *4129:A 2.89016e-05
33 *247:12 *4129:C 1.39841e-05
34 *247:12 *4129:D 5.52238e-05
35 *247:12 *4321:B 7.77652e-05
36 *247:25 *261:40 0.000268528
37 *247:29 *458:46 5.33005e-05
38 *247:60 *4128:A 0
39 *247:60 *4129:A 0
40 *247:60 *4129:B 7.83587e-05
41 *247:60 *4129:C 0
42 *247:60 *4129:D 6.8646e-06
43 *247:60 *4500:A 3.51442e-05
44 *247:60 *458:20 5.37963e-05
45 *4322:B1 *4322:A2 0.000175493
46 *4322:B1 *247:12 2.88018e-06
47 *4501:A *4322:A2 3.57366e-05
48 *4501:A *247:29 1.24368e-05
49 *4525:A *4321:A 1.58163e-05
50 *4525:A *247:12 3.69047e-06
51 *4529:A *4322:A2 5.71472e-05
52 *144:140 *4324:A2 0
53 *144:140 *247:25 0
54 *144:142 *247:25 0
55 *144:148 *247:25 0
56 *242:48 *247:8 3.34295e-05
*RES
1 *4319:X *247:8 15.4429 
2 *247:8 *247:12 11.1964 
3 *247:12 *4321:A 10.5679 
4 *247:12 *247:25 7.96429 
5 *247:25 *247:29 5.03571 
6 *247:29 *4322:A2 16.2107 
7 *247:29 *4323:A2 9.3 
8 *247:25 *4324:A2 17.6571 
9 *247:8 *247:60 3.76786 
10 *247:60 *4325:C 17.4786 
11 *247:60 *4327:D 20.6214 
*END

*D_NET *248 0.00164695
*CONN
*I *4524:A I *D sky130_fd_sc_hd__dlygate4sd3_1
*I *4320:Y O *D sky130_fd_sc_hd__o21ai_1
*CAP
1 *4524:A 0.000450104
2 *4320:Y 0.000450104
3 *4524:A *4129:C 0.000141375
4 *4524:A *4320:A1 0.000176226
5 *4320:A2 *4524:A 0.000404707
6 *144:148 *4524:A 2.44318e-05
*RES
1 *4320:Y *4524:A 35.9036 
*END

*D_NET *249 0.000744413
*CONN
*I *4323:B1 I *D sky130_fd_sc_hd__a21oi_1
*I *4322:Y O *D sky130_fd_sc_hd__o21ai_1
*CAP
1 *4323:B1 0.000168381
2 *4322:Y 0.000168381
3 *4323:B1 *4322:A1 0.00040765
*RES
1 *4322:Y *4323:B1 22.4214 
*END

*D_NET *250 0.00014963
*CONN
*I *4326:C I *D sky130_fd_sc_hd__and3b_1
*I *4324:X O *D sky130_fd_sc_hd__a21o_1
*CAP
1 *4326:C 3.32238e-05
2 *4324:X 3.32238e-05
3 *4324:A2 *4326:C 4.15914e-05
4 *144:140 *4326:C 4.15914e-05
*RES
1 *4324:X *4326:C 28.6357 
*END

*D_NET *251 0.00222148
*CONN
*I *4326:A_N I *D sky130_fd_sc_hd__and3b_1
*I *4328:A2 I *D sky130_fd_sc_hd__o21ai_1
*I *4325:X O *D sky130_fd_sc_hd__and3_1
*CAP
1 *4326:A_N 0
2 *4328:A2 0.000320864
3 *4325:X 0.000293988
4 *251:12 0.000614852
5 *4328:A2 *458:12 0
6 *4328:A2 *458:14 0
7 *4328:A2 *458:20 0
8 *251:12 *4325:B 0.000190848
9 *251:12 *458:46 0.000165043
10 *4325:C *251:12 0.000170964
11 *4501:A *251:12 5.71472e-05
12 *144:138 *4328:A2 1.99099e-05
13 *144:140 *4328:A2 0.000305121
14 *152:16 *4328:A2 8.27403e-05
*RES
1 *4325:X *251:12 17.3893 
2 *251:12 *4328:A2 26.0143 
3 *251:12 *4326:A_N 9.3 
*END

*D_NET *252 0.00665656
*CONN
*I *4332:A2 I *D sky130_fd_sc_hd__a21o_1
*I *4335:A3 I *D sky130_fd_sc_hd__a31o_1
*I *4331:A2 I *D sky130_fd_sc_hd__a21oi_1
*I *4330:A2 I *D sky130_fd_sc_hd__o21ai_1
*I *4333:C I *D sky130_fd_sc_hd__nand3_1
*I *4329:A I *D sky130_fd_sc_hd__nor2_1
*I *4327:X O *D sky130_fd_sc_hd__and4_2
*CAP
1 *4332:A2 7.75449e-05
2 *4335:A3 0.000407263
3 *4331:A2 0
4 *4330:A2 0
5 *4333:C 7.77367e-05
6 *4329:A 7.72572e-05
7 *4327:X 5.30434e-05
8 *252:62 0.000788558
9 *252:37 0.000311204
10 *252:33 0.000724362
11 *252:12 0.000917057
12 *252:6 0.000705699
13 *4329:A *4282:B 1.21258e-05
14 *4332:A2 *4332:A1 1.04232e-05
15 *4332:A2 *4332:B1 9.7049e-06
16 *4333:C *4167:A1 9.90431e-05
17 *4333:C *4331:A1 5.33005e-05
18 *4333:C *4333:B 5.52302e-05
19 *4333:C *471:51 7.90803e-05
20 *4335:A3 *4327:A 0
21 *4335:A3 *4327:B 0
22 *4335:A3 *4334:B 0
23 *4335:A3 *4334:C 0.000117119
24 *4335:A3 *4335:A2 5.71472e-05
25 *4335:A3 *4335:B1 4.88637e-05
26 *252:6 *458:12 2.89016e-05
27 *252:12 *4282:B 2.26327e-05
28 *252:12 *4327:A 0
29 *252:12 *4329:B 0.000315172
30 *252:12 *4414:D 0
31 *252:12 *259:106 2.59093e-05
32 *252:33 *4167:A1 0.000355002
33 *252:33 *4282:B 4.33438e-05
34 *252:33 *261:84 0
35 *252:37 *4167:A1 3.61629e-06
36 *252:37 *4331:A1 3.48705e-05
37 *4327:D *4335:A3 0
38 *4327:D *252:6 7.43578e-06
39 *4327:D *252:62 6.12335e-05
40 *4330:B1 *4333:C 2.84494e-05
41 *4334:A *4335:A3 2.89016e-05
42 *4489:A *4335:A3 0.000173921
43 *4519:A *4329:A 0.000137983
44 *4519:A *252:33 0
45 *4543:A *252:37 0.000139907
46 *4546:A *4329:A 9.71197e-05
47 *100:8 *252:33 0.000202891
48 *100:8 *252:37 1.97695e-05
49 *100:20 *252:12 0
50 *100:20 *252:33 7.77751e-05
51 *100:57 *4333:C 0
52 *152:16 *252:12 5.0725e-05
53 *152:16 *252:33 0.000119237
*RES
1 *4327:X *252:6 10.2464 
2 *252:6 *252:12 12.0357 
3 *252:12 *4329:A 15.8893 
4 *252:12 *252:33 15.9464 
5 *252:33 *252:37 3.625 
6 *252:37 *4333:C 20.5857 
7 *252:37 *4330:A2 9.3 
8 *252:33 *4331:A2 9.3 
9 *252:6 *252:62 4.64286 
10 *252:62 *4335:A3 27.4429 
11 *252:62 *4332:A2 10.675 
*END

*D_NET *253 0.00028801
*CONN
*I *4545:A I *D sky130_fd_sc_hd__dlygate4sd3_1
*I *4328:Y O *D sky130_fd_sc_hd__o21ai_1
*CAP
1 *4545:A 0.000115432
2 *4328:Y 0.000115432
3 *4545:A *4328:A1 5.71472e-05
*RES
1 *4328:Y *4545:A 20.6893 
*END

*D_NET *254 0.000126884
*CONN
*I *4331:B1 I *D sky130_fd_sc_hd__a21oi_1
*I *4330:Y O *D sky130_fd_sc_hd__o21ai_1
*CAP
1 *4331:B1 6.29488e-06
2 *4330:Y 6.29488e-06
3 *4331:B1 *4167:A1 5.71472e-05
4 *4331:B1 *4331:A1 5.71472e-05
*RES
1 *4330:Y *4331:B1 19.1357 
*END

*D_NET *255 0.000744888
*CONN
*I *4488:A I *D sky130_fd_sc_hd__dlygate4sd3_1
*I *4332:X O *D sky130_fd_sc_hd__a21o_1
*CAP
1 *4488:A 0.000224128
2 *4332:X 0.000224128
3 *4488:A *4332:B1 0.000232399
4 *4488:A *4334:B 0
5 *4488:A *4544:A 0
6 *4489:A *4488:A 6.42338e-05
*RES
1 *4332:X *4488:A 31.4214 
*END

*D_NET *256 0.00367126
*CONN
*I *4336:A2 I *D sky130_fd_sc_hd__o211a_1
*I *4334:C I *D sky130_fd_sc_hd__and3_1
*I *4333:Y O *D sky130_fd_sc_hd__nand3_1
*CAP
1 *4336:A2 0.000149428
2 *4334:C 0.00058868
3 *4333:Y 0.000167135
4 *256:10 0.000905244
5 *4334:C *4130:C_N 0.000178101
6 *4334:C *4130:D_N 7.80714e-06
7 *4334:C *4333:A 6.85604e-05
8 *4334:C *4335:B1 0.000230475
9 *4334:C *403:10 9.11365e-06
10 *4334:C *471:8 0.000315187
11 *4334:C *471:12 0.000223592
12 *4334:C *471:51 6.0038e-05
13 *256:10 *4333:A 0.000118015
14 *256:10 *471:51 0.000331545
15 *4335:A3 *4334:C 0.000117119
16 *4336:C1 *4336:A2 3.99614e-06
17 *4543:A *256:10 5.52302e-05
18 *144:122 *4336:A2 6.71854e-05
19 *144:124 *4336:A2 7.48091e-05
*RES
1 *4333:Y *256:10 18.7107 
2 *256:10 *4334:C 26.7554 
3 *256:10 *4336:A2 16.8179 
*END

*D_NET *257 0.0014954
*CONN
*I *4336:B1 I *D sky130_fd_sc_hd__o211a_1
*I *4335:X O *D sky130_fd_sc_hd__a31o_1
*CAP
1 *4336:B1 0.000483254
2 *4335:X 0.000483254
3 *4336:B1 *4130:B 0.000196678
4 *4336:B1 *4130:D_N 8.5662e-05
5 *4336:B1 *4333:A 0.000117388
6 *4336:B1 *4416:D 0.000103267
7 *4336:B1 *4417:D 0
8 *4336:B1 *4487:A 0
9 *4336:B1 *259:14 0
10 *4336:B1 *403:10 2.58997e-05
*RES
1 *4335:X *4336:B1 36.5821 
*END

*D_NET *258 0.00095709
*CONN
*I *4481:A I *D sky130_fd_sc_hd__dlygate4sd3_1
*I *4337:X O *D sky130_fd_sc_hd__o221a_1
*CAP
1 *4481:A 9.65244e-05
2 *4337:X 9.65244e-05
3 *4481:A *4337:B2 0.00035746
4 *4483:A *4481:A 8.25843e-06
5 *100:193 *4481:A 0.000398324
*RES
1 *4337:X *4481:A 22.85 
*END

*D_NET *259 0.0364544
*CONN
*I *570:DIODE I *D sky130_fd_sc_hd__diode_2
*I *4426:A I *D sky130_fd_sc_hd__clkbuf_16
*I *563:DIODE I *D sky130_fd_sc_hd__diode_2
*I *567:DIODE I *D sky130_fd_sc_hd__diode_2
*I *566:DIODE I *D sky130_fd_sc_hd__diode_2
*I *4422:A I *D sky130_fd_sc_hd__clkbuf_16
*I *4423:A I *D sky130_fd_sc_hd__clkbuf_16
*I *565:DIODE I *D sky130_fd_sc_hd__diode_2
*I *4421:A I *D sky130_fd_sc_hd__clkbuf_16
*I *4420:A I *D sky130_fd_sc_hd__clkbuf_16
*I *564:DIODE I *D sky130_fd_sc_hd__diode_2
*I *571:DIODE I *D sky130_fd_sc_hd__diode_2
*I *4427:A I *D sky130_fd_sc_hd__clkbuf_16
*I *569:DIODE I *D sky130_fd_sc_hd__diode_2
*I *4425:A I *D sky130_fd_sc_hd__clkbuf_16
*I *4424:A I *D sky130_fd_sc_hd__clkbuf_16
*I *568:DIODE I *D sky130_fd_sc_hd__diode_2
*I *4419:X O *D sky130_fd_sc_hd__clkbuf_16
*CAP
1 *570:DIODE 4.34606e-05
2 *4426:A 2.82021e-05
3 *563:DIODE 0
4 *567:DIODE 9.63285e-05
5 *566:DIODE 0
6 *4422:A 0.000260907
7 *4423:A 0
8 *565:DIODE 0
9 *4421:A 0
10 *4420:A 0.000588261
11 *564:DIODE 0.000106381
12 *571:DIODE 6.00842e-05
13 *4427:A 8.95055e-06
14 *569:DIODE 0
15 *4425:A 2.99504e-05
16 *4424:A 0
17 *568:DIODE 0
18 *4419:X 0.000218675
19 *259:213 0.00098441
20 *259:173 0.000724503
21 *259:164 0.000769959
22 *259:160 0.00142238
23 *259:154 0.00117761
24 *259:152 0.00114951
25 *259:116 0.00120429
26 *259:106 0.00109184
27 *259:92 0.00136573
28 *259:64 0.000872903
29 *259:53 0.000937245
30 *259:42 0.000698373
31 *259:31 0.00126102
32 *259:20 0.00113639
33 *259:14 0.00179944
34 *259:8 0.000903004
35 *564:DIODE *4254:A1 0.000257906
36 *564:DIODE *4255:B 9.90367e-05
37 *567:DIODE *373:257 6.19181e-05
38 *567:DIODE *488:66 5.33005e-05
39 *570:DIODE *4434:A 2.37761e-05
40 *570:DIODE *266:12 1.19402e-05
41 *571:DIODE *4178:A1 2.61337e-05
42 *571:DIODE *267:8 5.52238e-05
43 *571:DIODE *362:170 0
44 *4420:A *4257:A1 3.93247e-05
45 *4420:A *260:12 4.27437e-05
46 *4420:A *260:75 0.000143625
47 *4420:A *260:96 0.000116039
48 *4422:A *4484:A 9.71197e-05
49 *4422:A *400:6 5.71472e-05
50 *4427:A *4158:C1 5.71472e-05
51 *4427:A *267:8 5.52302e-05
52 *259:8 *306:12 2.89114e-05
53 *259:8 *306:24 1.39726e-05
54 *259:14 *4167:A1 0
55 *259:14 *4189:A1 0.000671059
56 *259:14 *4204:B 0.000139653
57 *259:14 *4415:CLK 0.000201127
58 *259:14 *4417:D 7.252e-05
59 *259:14 *266:22 3.84385e-05
60 *259:14 *306:12 2.94103e-05
61 *259:14 *308:10 0
62 *259:14 *350:14 9.25014e-06
63 *259:20 *4417:D 6.97972e-05
64 *259:20 *264:88 0.000524356
65 *259:20 *350:14 0.000126439
66 *259:31 *264:8 9.66073e-06
67 *259:31 *264:88 8.27532e-05
68 *259:42 *4285:D1 2.11795e-05
69 *259:42 *4340:D 0.000188012
70 *259:42 *4444:A 5.71472e-05
71 *259:42 *265:10 0.000144038
72 *259:42 *265:51 0.000123949
73 *259:42 *265:57 5.52302e-05
74 *259:42 *513:16 0.000610071
75 *259:42 *514:16 0.000183726
76 *259:53 *4480:A 0
77 *259:53 *265:10 5.59013e-05
78 *259:53 *514:16 0
79 *259:64 *4170:A0 0
80 *259:64 *4172:A1 0.00106382
81 *259:64 *4178:A1 9.54225e-05
82 *259:64 *4178:C1 8.2018e-05
83 *259:64 *4480:A 0
84 *259:64 *305:12 7.6644e-05
85 *259:64 *362:164 0
86 *259:64 *362:170 0
87 *259:92 *4130:C_N 0.00054824
88 *259:92 *403:8 9.71197e-05
89 *259:92 *473:6 4.88637e-05
90 *259:106 *4328:A1 0.000273269
91 *259:106 *4329:B 0.000203885
92 *259:106 *4414:CLK 0
93 *259:106 *473:6 2.28598e-05
94 *259:116 *4254:A1 8.86512e-05
95 *259:116 *4398:CLK 3.69047e-06
96 *259:152 *4204:B 0.000146474
97 *259:152 *266:22 7.79781e-06
98 *259:152 *306:12 5.97719e-05
99 *259:154 *460:133 0.000166416
100 *259:160 *4133:B 0
101 *259:160 *4471:A 4.79842e-05
102 *259:160 *4536:A 9.16173e-05
103 *259:160 *373:257 0.000193165
104 *259:160 *460:126 0.00061302
105 *259:160 *460:133 0.000142053
106 *259:160 *465:8 0
107 *259:160 *488:20 4.038e-06
108 *259:164 *4431:A 0.000434813
109 *259:164 *263:8 4.43256e-05
110 *259:164 *290:16 0.00027502
111 *259:173 *4245:C1 0.000136951
112 *259:173 *4246:A1 0.000363837
113 *259:173 *4431:A 5.46298e-05
114 *259:213 *4202:A 0
115 *259:213 *4203:A1 0
116 *259:213 *4363:CLK 0
117 *259:213 *4363:D 6.70515e-05
118 *259:213 *4532:A 0.000307878
119 *259:213 *266:12 2.19684e-05
120 *259:213 *460:133 2.42516e-05
121 *259:213 *460:156 1.3277e-05
122 *259:213 *461:25 0
123 *531:DIODE *259:160 0.00014285
124 *4146:B *259:42 7.50697e-05
125 *4146:B *259:53 6.57616e-05
126 *4151:A2 *259:14 0
127 *4163:B1 *259:64 0
128 *4171:B *259:64 0.000285413
129 *4203:C1 *259:213 0
130 *4205:A2 *259:8 7.32955e-05
131 *4205:C1 *259:8 5.71472e-05
132 *4205:C1 *259:160 5.52302e-05
133 *4211:B *259:160 0
134 *4220:B1 *570:DIODE 4.98872e-05
135 *4220:B1 *259:213 0.00022376
136 *4220:C1 *259:213 7.25392e-05
137 *4246:B1 *259:173 2.89114e-05
138 *4251:A *4420:A 0.000397911
139 *4251:B *4420:A 5.33005e-05
140 *4252:B *259:116 0.000343217
141 *4252:C *4420:A 0
142 *4257:A2 *4420:A 0.000531273
143 *4336:A1 *259:14 0.000148903
144 *4336:A1 *259:92 3.69047e-06
145 *4336:B1 *259:14 0
146 *4337:B1 *259:53 0.000124816
147 *4337:C1 *4425:A 9.41642e-05
148 *4337:C1 *259:53 7.80851e-06
149 *4382:D *4420:A 0.000110844
150 *4398:D *259:116 3.5707e-05
151 *4469:A *259:116 0.000141445
152 *4483:A *4425:A 9.41642e-05
153 *4558:A *259:8 0.000137983
154 *4573:A *259:64 0
155 *4594:A *259:173 2.95726e-05
156 *97:22 *259:160 1.02821e-05
157 *100:193 *259:53 5.41794e-05
158 *100:317 *259:160 0.000310298
159 *100:338 *259:160 0.000316184
160 *122:32 *259:164 0.000142856
161 *122:45 *259:164 0.000298875
162 *131:12 *259:160 0.000333493
163 *133:93 *259:64 0.000221132
164 *133:108 *259:64 8.68639e-05
165 *134:81 *4426:A 2.27416e-05
166 *142:10 *259:53 2.8266e-06
167 *142:10 *259:64 0.000109161
168 *144:138 *259:106 0.000269422
169 *151:10 *567:DIODE 0.000114759
170 *151:10 *259:160 0.00118286
171 *152:16 *259:106 0.000153047
172 *200:37 *4420:A 0
173 *252:12 *259:106 2.59093e-05
*RES
1 *4419:X *259:8 18.4429 
2 *259:8 *259:14 15.6607 
3 *259:14 *259:20 11.1964 
4 *259:20 *568:DIODE 9.3 
5 *259:20 *259:31 8.89286 
6 *259:31 *4424:A 9.3 
7 *259:31 *259:42 18.0714 
8 *259:42 *4425:A 14.7464 
9 *259:42 *259:53 3.46429 
10 *259:53 *569:DIODE 13.8 
11 *259:53 *259:64 21.3036 
12 *259:64 *4427:A 14.3357 
13 *259:64 *571:DIODE 15.0679 
14 *259:14 *259:92 20.375 
15 *259:92 *259:106 21.9107 
16 *259:106 *259:116 19.375 
17 *259:116 *564:DIODE 11.8893 
18 *259:116 *4420:A 33.1036 
19 *259:106 *4421:A 9.3 
20 *259:92 *565:DIODE 9.3 
21 *259:8 *259:152 6.44643 
22 *259:152 *259:154 3 
23 *259:154 *259:160 33.0714 
24 *259:160 *259:164 13.6607 
25 *259:164 *4423:A 9.3 
26 *259:164 *259:173 8.76786 
27 *259:173 *4422:A 13.5321 
28 *259:173 *566:DIODE 9.3 
29 *259:160 *567:DIODE 15.9786 
30 *259:154 *563:DIODE 9.3 
31 *259:152 *259:213 20.875 
32 *259:213 *4426:A 14.3357 
33 *259:213 *570:DIODE 15.1393 
*END

*D_NET *260 0.010677
*CONN
*I *4381:CLK I *D sky130_fd_sc_hd__dfxtp_1
*I *4398:CLK I *D sky130_fd_sc_hd__dfxtp_1
*I *4383:CLK I *D sky130_fd_sc_hd__dfxtp_1
*I *4428:A I *D sky130_fd_sc_hd__inv_6
*I *4386:CLK I *D sky130_fd_sc_hd__dfxtp_1
*I *4384:CLK I *D sky130_fd_sc_hd__dfxtp_1
*I *4350:CLK I *D sky130_fd_sc_hd__dfxtp_1
*I *4385:CLK I *D sky130_fd_sc_hd__dfxtp_1
*I *4420:X O *D sky130_fd_sc_hd__clkbuf_16
*CAP
1 *4381:CLK 0.000435938
2 *4398:CLK 0.00024542
3 *4383:CLK 0.000185676
4 *4428:A 0
5 *4386:CLK 2.37282e-05
6 *4384:CLK 7.43048e-05
7 *4350:CLK 0.00048236
8 *4385:CLK 0.000313759
9 *4420:X 0
10 *260:96 0.00111977
11 *260:75 0.000864023
12 *260:37 0.000650817
13 *260:24 0.00059568
14 *260:20 0.000968412
15 *260:12 0.0012626
16 *260:4 0.000745625
17 *4350:CLK *4350:D 0
18 *4381:CLK *4381:D 4.57445e-05
19 *4381:CLK *510:14 0
20 *4383:CLK *281:23 0
21 *4383:CLK *385:12 0
22 *4384:CLK *283:10 3.30352e-05
23 *4386:CLK *283:23 3.17163e-05
24 *260:12 *282:19 5.35423e-05
25 *260:20 *4106:B 5.33334e-05
26 *260:20 *4386:D 1.85861e-05
27 *260:20 *284:10 2.23758e-05
28 *260:24 *283:10 7.73662e-05
29 *260:24 *283:23 6.16744e-05
30 *260:37 *283:10 1.33343e-05
31 *260:75 *281:23 0
32 *4251:B *260:96 5.33005e-05
33 *4252:C *4381:CLK 0
34 *4257:A2 *260:12 0.000531273
35 *4263:A2 *260:24 0
36 *4382:D *260:96 0.000242953
37 *4385:D *4385:CLK 8.95186e-05
38 *4385:D *260:24 0
39 *4398:D *4398:CLK 1.64343e-05
40 *4420:A *260:12 4.27437e-05
41 *4420:A *260:75 0.000143625
42 *4420:A *260:96 0.000116039
43 *4469:A *4398:CLK 3.57366e-05
44 *134:24 *4383:CLK 0.000183674
45 *134:24 *260:75 5.33882e-05
46 *140:18 *4381:CLK 0
47 *140:18 *4398:CLK 0
48 *140:18 *260:96 0.000272371
49 *204:10 *260:96 0.000396898
50 *207:10 *4350:CLK 4.79842e-05
51 *207:19 *4350:CLK 6.85604e-05
52 *207:19 *260:24 0
53 *207:36 *4386:CLK 0
54 *207:36 *260:24 0
55 *259:116 *4398:CLK 3.69047e-06
*RES
1 *4420:X *260:4 9.3 
2 *260:4 *260:12 16.8214 
3 *260:12 *260:20 14.4107 
4 *260:20 *260:24 8.26786 
5 *260:24 *4385:CLK 14.3714 
6 *260:24 *260:37 1.67857 
7 *260:37 *4350:CLK 27.8357 
8 *260:37 *4384:CLK 10.6571 
9 *260:20 *4386:CLK 14.5321 
10 *260:12 *4428:A 9.3 
11 *260:4 *260:75 8.42857 
12 *260:75 *4383:CLK 18.175 
13 *260:75 *260:96 18.4286 
14 *260:96 *4398:CLK 17.7464 
15 *260:96 *4381:CLK 21.8179 
*END

*D_NET *261 0.0105398
*CONN
*I *4414:CLK I *D sky130_fd_sc_hd__dfxtp_1
*I *4394:CLK I *D sky130_fd_sc_hd__dfxtp_1
*I *4393:CLK I *D sky130_fd_sc_hd__dfxtp_1
*I *4382:CLK I *D sky130_fd_sc_hd__dfxtp_1
*I *4413:CLK I *D sky130_fd_sc_hd__dfxtp_1
*I *4411:CLK I *D sky130_fd_sc_hd__dfxtp_1
*I *4410:CLK I *D sky130_fd_sc_hd__dfxtp_1
*I *4409:CLK I *D sky130_fd_sc_hd__dfxtp_1
*I *4412:CLK I *D sky130_fd_sc_hd__dfxtp_1
*I *4429:A I *D sky130_fd_sc_hd__clkinvlp_4
*I *4421:X O *D sky130_fd_sc_hd__clkbuf_16
*CAP
1 *4414:CLK 0.000156022
2 *4394:CLK 0.000835117
3 *4393:CLK 0
4 *4382:CLK 0.000272669
5 *4413:CLK 0.000129802
6 *4411:CLK 2.61003e-05
7 *4410:CLK 0.000135788
8 *4409:CLK 0.000177478
9 *4412:CLK 0
10 *4429:A 8.61686e-05
11 *4421:X 0
12 *261:86 0.000272669
13 *261:84 0.00126357
14 *261:46 0.000601374
15 *261:40 0.000744593
16 *261:36 0.000631213
17 *261:29 0.000336152
18 *261:16 0.000738502
19 *261:8 0.000914648
20 *261:4 0.000255005
21 *4394:CLK *4394:D 6.77203e-05
22 *4394:CLK *287:14 1.71774e-05
23 *4394:CLK *450:8 0
24 *4409:CLK *4409:D 0
25 *4409:CLK *516:14 0
26 *4410:CLK *4314:A1 1.5424e-05
27 *4410:CLK *516:14 0.000405727
28 *4411:CLK *4523:A 2.89114e-05
29 *4413:CLK *4324:B1 0.000271345
30 *261:40 *4324:A1 0.000103267
31 *261:40 *4411:D 0
32 *261:46 *4314:A1 9.76491e-05
33 *261:84 *4393:D 0
34 *4313:B *4409:CLK 7.83659e-05
35 *4314:B1 *261:46 8.5896e-05
36 *4322:B1 *261:40 0
37 *4324:A2 *4413:CLK 1.5424e-05
38 *4324:A2 *261:36 5.33334e-05
39 *4324:A2 *261:40 0.000116481
40 *4588:A *4410:CLK 0.00036192
41 *4588:A *261:46 0.000225616
42 *4589:A *261:46 1.74352e-05
43 *140:18 *4382:CLK 0.000146523
44 *140:18 *4394:CLK 0
45 *140:18 *261:84 0
46 *144:138 *4414:CLK 0.000267377
47 *144:138 *261:8 4.88546e-05
48 *144:138 *261:16 0.000166983
49 *144:140 *261:16 3.34366e-05
50 *144:140 *261:29 0
51 *144:140 *261:40 0
52 *144:148 *261:40 0
53 *144:148 *261:46 0
54 *152:16 *261:16 0
55 *152:16 *261:84 0
56 *242:48 *4410:CLK 1.39726e-05
57 *243:10 *4409:CLK 7.79781e-06
58 *243:10 *261:46 4.78056e-05
59 *247:25 *261:40 0.000268528
60 *252:33 *261:84 0
61 *259:106 *4414:CLK 0
*RES
1 *4421:X *261:4 9.3 
2 *261:4 *261:8 5.85714 
3 *261:8 *261:16 11.5 
4 *261:16 *4429:A 10.6571 
5 *261:16 *261:29 13.6786 
6 *261:29 *4412:CLK 9.3 
7 *261:29 *261:36 1.35714 
8 *261:36 *261:40 11.9107 
9 *261:40 *261:46 11.3571 
10 *261:46 *4409:CLK 21.1571 
11 *261:46 *4410:CLK 14.3714 
12 *261:40 *4411:CLK 14.3357 
13 *261:36 *4413:CLK 12.3 
14 *261:8 *261:84 6.80357 
15 *261:84 *261:86 4.5 
16 *261:86 *4382:CLK 14.3536 
17 *261:86 *4393:CLK 9.3 
18 *261:84 *4394:CLK 25.3 
19 *261:4 *4414:CLK 12.6214 
*END

*D_NET *262 0.00753792
*CONN
*I *4349:CLK I *D sky130_fd_sc_hd__dfxtp_1
*I *4391:CLK I *D sky130_fd_sc_hd__dfxtp_1
*I *4392:CLK I *D sky130_fd_sc_hd__dfxtp_1
*I *4430:A I *D sky130_fd_sc_hd__inv_6
*I *4390:CLK I *D sky130_fd_sc_hd__dfxtp_1
*I *4389:CLK I *D sky130_fd_sc_hd__dfxtp_1
*I *4388:CLK I *D sky130_fd_sc_hd__dfxtp_1
*I *4387:CLK I *D sky130_fd_sc_hd__dfxtp_1
*I *4422:X O *D sky130_fd_sc_hd__clkbuf_16
*CAP
1 *4349:CLK 0.000309909
2 *4391:CLK 1.40568e-05
3 *4392:CLK 0
4 *4430:A 2.23854e-05
5 *4390:CLK 0.000203335
6 *4389:CLK 8.61506e-05
7 *4388:CLK 0.000147991
8 *4387:CLK 0.00033429
9 *4422:X 0
10 *262:82 0.000468378
11 *262:73 0.000436326
12 *262:16 0.000862859
13 *262:14 0.00103154
14 *262:8 0.00118696
15 *262:6 0.000494112
16 *262:4 0.00034483
17 *4349:CLK *4391:D 0.000103267
18 *4388:CLK *4388:D 0.000103323
19 *4390:CLK *369:12 0
20 *4391:CLK *276:10 5.52238e-05
21 *4391:CLK *344:10 2.89016e-05
22 *262:6 *4278:A1 0.000316184
23 *262:8 *4275:A1 5.52238e-05
24 *262:8 *4278:A1 0.00014285
25 *262:16 *4270:B 0
26 *262:16 *4388:D 0
27 *262:73 *4278:A1 5.33005e-05
28 *262:73 *4279:B1 0.000159982
29 *262:73 *4392:D 0
30 *4275:B1 *262:8 0.000191042
31 *4278:A2 *4430:A 0
32 *4281:B *262:73 4.78056e-05
33 *4454:A *4390:CLK 0
34 *4505:A *262:16 0
35 *4598:A *4349:CLK 0
36 *4598:A *262:73 4.16984e-05
37 *4598:A *262:82 0
38 *219:6 *262:8 3.18676e-05
39 *219:17 *262:6 0.000166485
40 *219:17 *262:8 9.76491e-05
*RES
1 *4422:X *262:4 9.3 
2 *262:4 *262:6 3 
3 *262:6 *262:8 8.33929 
4 *262:8 *262:14 13.5357 
5 *262:14 *262:16 6.80357 
6 *262:16 *4387:CLK 19.6214 
7 *262:16 *4388:CLK 16.4071 
8 *262:14 *4389:CLK 15.1571 
9 *262:8 *4390:CLK 21.6036 
10 *262:6 *4430:A 9.72857 
11 *262:4 *262:73 10.2679 
12 *262:73 *4392:CLK 13.8 
13 *262:73 *262:82 2.55357 
14 *262:82 *4391:CLK 14.3357 
15 *262:82 *4349:CLK 19.6214 
*END

*D_NET *263 0.0128254
*CONN
*I *4375:CLK I *D sky130_fd_sc_hd__dfxtp_1
*I *4377:CLK I *D sky130_fd_sc_hd__dfxtp_1
*I *4395:CLK I *D sky130_fd_sc_hd__dfxtp_2
*I *4397:CLK I *D sky130_fd_sc_hd__dfxtp_4
*I *4379:CLK I *D sky130_fd_sc_hd__dfxtp_1
*I *4431:A I *D sky130_fd_sc_hd__inv_4
*I *4396:CLK I *D sky130_fd_sc_hd__dfxtp_2
*I *4380:CLK I *D sky130_fd_sc_hd__dfxtp_1
*I *4373:CLK I *D sky130_fd_sc_hd__dfxtp_1
*I *4378:CLK I *D sky130_fd_sc_hd__dfxtp_1
*I *4423:X O *D sky130_fd_sc_hd__clkbuf_16
*CAP
1 *4375:CLK 0.000333283
2 *4377:CLK 0.000674032
3 *4395:CLK 0
4 *4397:CLK 0.000443918
5 *4379:CLK 0.000446647
6 *4431:A 0.000231231
7 *4396:CLK 0
8 *4380:CLK 0.00013845
9 *4373:CLK 0.000482857
10 *4378:CLK 0
11 *4423:X 0.000127222
12 *263:80 0.000443918
13 *263:78 0.000755226
14 *263:65 0.000677571
15 *263:63 0.000566484
16 *263:18 0.000740818
17 *263:14 0.000475589
18 *263:12 0.000137625
19 *263:10 0.000325027
20 *263:8 0.000246042
21 *4373:CLK *4378:D 0.000103323
22 *4373:CLK *373:216 0.000389561
23 *4375:CLK *529:DIODE 1.92905e-05
24 *4375:CLK *4243:D 9.71197e-05
25 *4375:CLK *460:42 0.000523471
26 *4375:CLK *460:44 9.61455e-05
27 *4375:CLK *488:66 0.000184797
28 *4375:CLK *488:70 5.17614e-05
29 *4380:CLK *4145:A1 2.44318e-05
30 *4380:CLK *356:18 0.000351162
31 *4431:A *290:16 9.41642e-05
32 *263:10 *290:8 3.80904e-05
33 *263:12 *290:8 5.41797e-06
34 *263:12 *290:29 0.000154029
35 *263:14 *290:29 0.000211205
36 *263:18 *4124:B2 0.000385717
37 *263:18 *4241:A2 4.78056e-05
38 *263:18 *290:29 0.000191403
39 *263:18 *373:222 8.17978e-05
40 *263:18 *373:231 2.18827e-05
41 *263:63 *4243:A 2.84494e-05
42 *263:63 *290:8 7.15591e-05
43 *263:65 *290:8 0.00011914
44 *263:78 *290:8 4.89264e-05
45 *4143:A3 *263:10 0
46 *4143:A3 *263:63 0
47 *4143:A3 *263:65 0
48 *4143:B1 *263:65 0
49 *4145:A2 *4380:CLK 0.00018077
50 *4152:A3 *4379:CLK 0.000342003
51 *4227:B *4375:CLK 7.17235e-05
52 *4227:C *4375:CLK 4.92221e-05
53 *4395:D *263:65 2.8266e-06
54 *4395:D *263:78 3.5707e-05
55 *4397:D *4397:CLK 0.000318101
56 *4397:D *263:78 0
57 *122:32 *263:8 9.90431e-05
58 *122:32 *263:10 2.84494e-05
59 *122:32 *263:12 9.24299e-05
60 *122:32 *263:14 0.000114121
61 *122:32 *263:18 9.32406e-05
62 *140:66 *4380:CLK 0.000122091
63 *180:10 *4373:CLK 9.90431e-05
64 *188:10 *4375:CLK 5.62995e-05
65 *259:164 *4431:A 0.000434813
66 *259:164 *263:8 4.43256e-05
67 *259:173 *4431:A 5.46298e-05
*RES
1 *4423:X *263:8 15.5679 
2 *263:8 *263:10 1.03571 
3 *263:10 *263:12 2.25 
4 *263:12 *263:14 2.85714 
5 *263:14 *263:18 11.9107 
6 *263:18 *4378:CLK 9.3 
7 *263:18 *4373:CLK 19.425 
8 *263:14 *4380:CLK 18.4429 
9 *263:12 *4396:CLK 13.8 
10 *263:10 *4431:A 19.2821 
11 *263:8 *263:63 1.94643 
12 *263:63 *263:65 3.16071 
13 *263:65 *4379:CLK 19.9964 
14 *263:65 *263:78 1.94643 
15 *263:78 *263:80 4.5 
16 *263:80 *4397:CLK 17.6393 
17 *263:80 *4395:CLK 9.3 
18 *263:78 *4377:CLK 25.175 
19 *263:63 *4375:CLK 23.9071 
*END

*D_NET *264 0.0132237
*CONN
*I *4357:CLK I *D sky130_fd_sc_hd__dfxtp_1
*I *4415:CLK I *D sky130_fd_sc_hd__dfxtp_1
*I *4399:CLK I *D sky130_fd_sc_hd__dfxtp_1
*I *4341:CLK I *D sky130_fd_sc_hd__dfxtp_1
*I *4417:CLK I *D sky130_fd_sc_hd__dfxtp_1
*I *4416:CLK I *D sky130_fd_sc_hd__dfxtp_1
*I *4432:A I *D sky130_fd_sc_hd__clkinv_2
*I *4404:CLK I *D sky130_fd_sc_hd__dfxtp_1
*I *4405:CLK I *D sky130_fd_sc_hd__dfxtp_1
*I *4407:CLK I *D sky130_fd_sc_hd__dfxtp_1
*I *4408:CLK I *D sky130_fd_sc_hd__dfxtp_1
*I *4406:CLK I *D sky130_fd_sc_hd__dfxtp_1
*I *4424:X O *D sky130_fd_sc_hd__clkbuf_16
*CAP
1 *4357:CLK 0
2 *4415:CLK 0.000466941
3 *4399:CLK 0.0002032
4 *4341:CLK 0
5 *4417:CLK 0
6 *4416:CLK 3.63659e-05
7 *4432:A 7.00239e-05
8 *4404:CLK 0
9 *4405:CLK 0
10 *4407:CLK 0
11 *4408:CLK 0.000359201
12 *4406:CLK 0.00027268
13 *4424:X 7.8197e-05
14 *264:119 0.000979293
15 *264:117 0.000731774
16 *264:102 0.000512437
17 *264:88 0.000427767
18 *264:82 0.000527976
19 *264:41 0.00139365
20 *264:29 0.00106823
21 *264:14 0.000691594
22 *264:12 0.000453745
23 *264:10 0.000311158
24 *264:8 0.000297469
25 *4399:CLK *4167:A1 0.000237449
26 *4399:CLK *4399:D 1.64343e-05
27 *4406:CLK *4303:A1 0.000191203
28 *4406:CLK *4406:D 1.64343e-05
29 *4406:CLK *446:10 0
30 *4408:CLK *4128:B 0
31 *4408:CLK *4590:A 6.65398e-05
32 *4415:CLK *4399:D 5.62995e-05
33 *4415:CLK *4415:D 2.59355e-05
34 *4416:CLK *4487:A 4.01768e-05
35 *264:10 *4299:A1 0
36 *264:10 *4341:D 0
37 *264:12 *4127:C 7.80968e-05
38 *264:14 *4127:C 6.63569e-05
39 *264:14 *4305:B 0
40 *264:14 *4405:D 5.33786e-05
41 *264:14 *446:10 0
42 *264:14 *446:36 0
43 *264:41 *4304:B1 1.78353e-05
44 *264:41 *4307:C 0.000153637
45 *264:41 *4309:B1 2.34204e-05
46 *264:41 *4605:A 0
47 *264:41 *353:10 5.33433e-05
48 *264:41 *353:29 0
49 *264:82 *4341:D 0
50 *264:88 *4417:D 1.64343e-05
51 *264:88 *4487:A 2.32517e-05
52 *264:102 *4341:D 0
53 *264:117 *4357:D 0
54 *264:119 *4190:A 2.59355e-05
55 *4189:A2 *264:117 0.000117378
56 *4190:C *264:119 4.02881e-05
57 *4284:B1 *264:117 8.32242e-05
58 *4303:B1 *4406:CLK 0
59 *4303:B1 *264:14 0
60 *4307:A_N *264:41 1.58163e-05
61 *4318:A *4408:CLK 0
62 *4334:A *4408:CLK 0
63 *4473:A *4406:CLK 0
64 *4517:A *4406:CLK 5.30637e-06
65 *4517:A *264:14 0
66 *4543:A *4399:CLK 3.69047e-06
67 *4543:A *4415:CLK 5.52302e-05
68 *4591:A *4408:CLK 0.000103307
69 *4592:A *4408:CLK 7.32272e-05
70 *100:90 *264:117 0
71 *130:16 *264:10 0.000308359
72 *130:16 *264:12 0.000217478
73 *130:16 *264:14 3.34366e-05
74 *130:16 *264:82 9.78605e-05
75 *130:16 *264:102 0.000166262
76 *130:16 *264:117 0.000190155
77 *133:42 *264:117 5.52302e-05
78 *133:42 *264:119 5.52238e-05
79 *144:18 *264:14 3.42616e-05
80 *144:68 *4408:CLK 3.71496e-05
81 *168:6 *264:117 1.56e-05
82 *168:6 *264:119 1.92789e-05
83 *234:10 *264:14 0
84 *234:26 *264:14 0
85 *239:12 *4408:CLK 0.000317609
86 *239:20 *4408:CLK 7.61932e-05
87 *239:20 *264:41 0.000240371
88 *259:14 *4415:CLK 0.000201127
89 *259:20 *264:88 0.000524356
90 *259:31 *264:8 9.66073e-06
91 *259:31 *264:88 8.27532e-05
*RES
1 *4424:X *264:8 14.7464 
2 *264:8 *264:10 4.07143 
3 *264:10 *264:12 2.85714 
4 *264:12 *264:14 7.10714 
5 *264:14 *4406:CLK 19.6571 
6 *264:14 *264:29 5.03571 
7 *264:29 *264:41 24.6607 
8 *264:41 *4408:CLK 27.175 
9 *264:41 *4407:CLK 9.3 
10 *264:29 *4405:CLK 9.3 
11 *264:12 *4404:CLK 13.8 
12 *264:10 *4432:A 14.7464 
13 *264:8 *264:82 1.33929 
14 *264:82 *264:88 12.8571 
15 *264:88 *4416:CLK 10.2464 
16 *264:88 *4417:CLK 9.3 
17 *264:82 *264:102 2.25 
18 *264:102 *4341:CLK 13.8 
19 *264:102 *264:117 12.9821 
20 *264:117 *264:119 5.05357 
21 *264:119 *4399:CLK 14.1036 
22 *264:119 *4415:CLK 27.1393 
23 *264:117 *4357:CLK 9.3 
*END

*D_NET *265 0.0138002
*CONN
*I *4418:CLK I *D sky130_fd_sc_hd__dfxtp_1
*I *4403:CLK I *D sky130_fd_sc_hd__dfxtp_1
*I *4339:CLK I *D sky130_fd_sc_hd__dfxtp_1
*I *4352:CLK I *D sky130_fd_sc_hd__dfxtp_1
*I *4344:CLK I *D sky130_fd_sc_hd__dfxtp_1
*I *4342:CLK I *D sky130_fd_sc_hd__dfxtp_1
*I *4340:CLK I *D sky130_fd_sc_hd__dfxtp_2
*I *4351:CLK I *D sky130_fd_sc_hd__dfxtp_1
*I *4433:A I *D sky130_fd_sc_hd__clkinv_2
*I *4400:CLK I *D sky130_fd_sc_hd__dfxtp_1
*I *4401:CLK I *D sky130_fd_sc_hd__dfxtp_1
*I *4402:CLK I *D sky130_fd_sc_hd__dfxtp_1
*I *4425:X O *D sky130_fd_sc_hd__clkbuf_16
*CAP
1 *4418:CLK 0
2 *4403:CLK 0.000275006
3 *4339:CLK 0
4 *4352:CLK 9.15963e-05
5 *4344:CLK 4.22799e-05
6 *4342:CLK 0
7 *4340:CLK 0
8 *4351:CLK 0.000342568
9 *4433:A 0
10 *4400:CLK 0.000171796
11 *4401:CLK 0
12 *4402:CLK 0.000518704
13 *4425:X 0
14 *265:130 0.000648632
15 *265:119 0.000814101
16 *265:93 0.000310558
17 *265:89 0.000809943
18 *265:57 0.000483949
19 *265:51 0.000316721
20 *265:47 0.00017534
21 *265:18 0.000609536
22 *265:12 0.000687685
23 *265:10 0.000697515
24 *265:4 0.000465244
25 *4344:CLK *4583:A 4.58194e-05
26 *4344:CLK *362:35 4.58194e-05
27 *4351:CLK *4351:D 2.56845e-05
28 *4351:CLK *4583:A 8.78332e-05
29 *4351:CLK *360:75 0
30 *4351:CLK *513:16 0.000114717
31 *4351:CLK *514:16 0
32 *4352:CLK *373:48 5.33005e-05
33 *4400:CLK *4137:D_N 0.000192489
34 *4400:CLK *309:6 5.33433e-05
35 *4402:CLK *4514:A 5.33334e-05
36 *4403:CLK *4339:D 0
37 *265:10 *4342:D 3.17148e-05
38 *265:10 *4418:D 7.29657e-05
39 *265:10 *335:12 0.000652315
40 *265:12 *4125:B 0
41 *265:12 *4342:D 0.000126439
42 *265:12 *4497:A 0
43 *265:12 *362:70 7.87356e-05
44 *265:51 *4285:D1 0.000268403
45 *265:51 *514:16 0.000225616
46 *265:57 *4101:A 0
47 *265:57 *4285:A2 4.46186e-06
48 *265:57 *4285:D1 1.74352e-05
49 *265:57 *360:75 0
50 *265:57 *513:16 4.03318e-05
51 *265:89 *4155:A 6.05161e-06
52 *265:89 *4418:D 5.23893e-05
53 *265:89 *335:12 0.000268121
54 *265:119 *4155:A 0.000152824
55 *265:130 *4155:A 0.0001399
56 *265:130 *4339:D 0
57 *265:130 *4612:A 2.00751e-05
58 led[1] *265:130 0.00014734
59 *4146:B *265:10 1.09026e-05
60 *4146:B *265:12 1.78353e-05
61 *4147:B1 *265:12 1.3142e-05
62 *4155:B *265:130 4.43256e-05
63 *4175:A2 *4351:CLK 1.02504e-05
64 *4286:B *265:12 0.000148903
65 *4286:B *265:51 2.89016e-05
66 *4290:B *4402:CLK 0.000111227
67 *4290:B *265:18 2.59355e-05
68 *4293:C *265:12 3.34366e-05
69 *4293:C *265:18 0.000198698
70 *4296:C *4402:CLK 9.90367e-05
71 *4298:A *4402:CLK 7.61932e-05
72 *4337:B1 *265:10 0.000177898
73 *4337:B1 *265:12 0.0001944
74 *4401:D *4402:CLK 0.000127114
75 *4401:D *265:18 0.000150289
76 *4402:D *4402:CLK 2.44318e-05
77 *4483:A *265:10 0.000351985
78 *4507:A *265:12 0.000125724
79 *4513:A *4403:CLK 0
80 *100:127 *265:12 0
81 *100:193 *265:93 0.000101132
82 *100:206 *4352:CLK 0.000214335
83 *100:206 *265:93 0.000147125
84 *134:115 *4352:CLK 0.000221163
85 *134:115 *265:93 0.000227198
86 *134:119 *265:93 0.000100831
87 *225:10 *265:12 0
88 *228:8 *265:12 0
89 *228:8 *265:18 0
90 *259:42 *265:10 0.000144038
91 *259:42 *265:51 0.000123949
92 *259:42 *265:57 5.52302e-05
93 *259:53 *265:10 5.59013e-05
*RES
1 *4425:X *265:4 9.3 
2 *265:4 *265:10 13.9464 
3 *265:10 *265:12 9.53571 
4 *265:12 *265:18 7.58929 
5 *265:18 *4402:CLK 19.8536 
6 *265:18 *4401:CLK 9.3 
7 *265:12 *4400:CLK 18.0321 
8 *265:10 *265:47 4.5 
9 *265:47 *265:51 5.07143 
10 *265:51 *265:57 7.28571 
11 *265:57 *4433:A 13.8 
12 *265:57 *4351:CLK 20.675 
13 *265:51 *4340:CLK 9.3 
14 *265:47 *4342:CLK 9.3 
15 *265:4 *265:89 4.23214 
16 *265:89 *265:93 8.875 
17 *265:93 *4344:CLK 14.7464 
18 *265:93 *4352:CLK 17.1929 
19 *265:89 *265:119 5.80357 
20 *265:119 *4339:CLK 9.3 
21 *265:119 *265:130 12.0714 
22 *265:130 *4403:CLK 18.7821 
23 *265:130 *4418:CLK 13.8 
*END

*D_NET *266 0.0166212
*CONN
*I *4366:CLK I *D sky130_fd_sc_hd__dfxtp_1
*I *4368:CLK I *D sky130_fd_sc_hd__dfxtp_1
*I *4434:A I *D sky130_fd_sc_hd__clkbuf_8
*I *4370:CLK I *D sky130_fd_sc_hd__dfxtp_1
*I *4372:CLK I *D sky130_fd_sc_hd__dfxtp_1
*I *4367:CLK I *D sky130_fd_sc_hd__dfxtp_1
*I *4376:CLK I *D sky130_fd_sc_hd__dfxtp_1
*I *4374:CLK I *D sky130_fd_sc_hd__dfxtp_1
*I *4371:CLK I *D sky130_fd_sc_hd__dfxtp_1
*I *4363:CLK I *D sky130_fd_sc_hd__dfxtp_1
*I *4356:CLK I *D sky130_fd_sc_hd__dfxtp_1
*I *4364:CLK I *D sky130_fd_sc_hd__dfxtp_1
*I *4365:CLK I *D sky130_fd_sc_hd__dfxtp_1
*I *4426:X O *D sky130_fd_sc_hd__clkbuf_16
*CAP
1 *4366:CLK 0.00018128
2 *4368:CLK 0
3 *4434:A 0.000123662
4 *4370:CLK 9.78433e-05
5 *4372:CLK 0
6 *4367:CLK 1.91209e-05
7 *4376:CLK 0.00120508
8 *4374:CLK 0.000293995
9 *4371:CLK 1.55834e-05
10 *4363:CLK 0.000143309
11 *4356:CLK 0
12 *4364:CLK 2.23854e-05
13 *4365:CLK 0.000188443
14 *4426:X 0
15 *266:151 0.00052967
16 *266:94 0.00152291
17 *266:79 0.000967052
18 *266:66 0.000505899
19 *266:46 0.000374735
20 *266:33 0.000456027
21 *266:22 0.000803995
22 *266:18 0.000529308
23 *266:16 0.000586276
24 *266:12 0.000821356
25 *266:8 0.000646966
26 *266:4 0.000734458
27 *4363:CLK *4187:A1 0.000156663
28 *4363:CLK *460:156 1.92789e-05
29 *4365:CLK *4165:A1 0.000706537
30 *4365:CLK *307:15 0.000173328
31 *4365:CLK *308:10 7.15846e-05
32 *4366:CLK *490:10 0
33 *4370:CLK *461:25 3.19626e-05
34 *4376:CLK *4140:C 0
35 *4376:CLK *4367:D 5.33091e-06
36 *4376:CLK *4463:A 0
37 *4376:CLK *4560:A 0
38 *4434:A *4216:A1 0
39 *266:12 *4216:A1 0
40 *266:12 *4532:A 2.56694e-05
41 *266:16 *4221:A 1.15281e-05
42 *266:16 *461:25 3.05446e-05
43 *266:22 *4204:B 0
44 *266:22 *4205:A1 0.00011389
45 *266:22 *4222:A1 0.000439656
46 *266:22 *4363:D 0
47 *266:22 *4526:A 2.39876e-05
48 *266:22 *4557:A 0.000322446
49 *266:22 *306:12 0.000174805
50 *266:33 *4364:D 1.64343e-05
51 *266:33 *307:15 0.000181796
52 *266:46 *4187:A1 0.000150632
53 *266:46 *4364:D 0
54 *266:66 *4222:A1 0.000219464
55 *266:66 *4372:D 1.00375e-05
56 *266:66 *4526:A 9.71896e-05
57 *266:79 *4222:A1 0.000173097
58 *266:79 *4232:C 1.08359e-05
59 *266:79 *4372:D 5.90443e-06
60 *266:79 *4463:A 0
61 *266:151 *4213:A 0
62 *266:151 *4216:A1 0
63 *266:151 *4218:A1 0
64 *570:DIODE *4434:A 2.37761e-05
65 *570:DIODE *266:12 1.19402e-05
66 *4203:C1 *4363:CLK 0
67 *4210:B *4366:CLK 0.000377174
68 *4210:B *266:151 1.02504e-05
69 *4212:C1 *4376:CLK 8.32242e-05
70 *4216:B1 *266:151 0
71 *4220:A2 *4370:CLK 0
72 *4220:A2 *266:16 0.000348879
73 *4220:B1 *4434:A 0
74 *4231:A3 *4374:CLK 1.10772e-05
75 *4365:D *4365:CLK 0.000190948
76 *4366:D *4366:CLK 3.47737e-05
77 *4368:D *266:151 0.000100831
78 *4371:D *4371:CLK 5.52238e-05
79 *4371:D *266:79 5.33978e-05
80 *4374:D *4374:CLK 8.61073e-05
81 *4539:A *266:151 4.25809e-05
82 *4548:A *4376:CLK 9.21958e-05
83 *4580:A *266:46 5.33433e-05
84 *122:80 *266:79 0.000283691
85 *133:42 *4365:CLK 0.000154194
86 *133:42 *266:33 0.000130494
87 *133:42 *266:46 2.32517e-05
88 *134:81 *4371:CLK 1.92789e-05
89 *134:81 *266:8 0.000149866
90 *177:27 *266:79 0
91 *178:69 *266:79 0.00022117
92 *180:70 *4434:A 5.33334e-05
93 *259:14 *266:22 3.84385e-05
94 *259:152 *266:22 7.79781e-06
95 *259:213 *4363:CLK 0
96 *259:213 *266:12 2.19684e-05
*RES
1 *4426:X *266:4 9.3 
2 *266:4 *266:8 9.55357 
3 *266:8 *266:12 7.05357 
4 *266:12 *266:16 8.14286 
5 *266:16 *266:18 4.5 
6 *266:18 *266:22 16.1607 
7 *266:22 *4365:CLK 18.0679 
8 *266:22 *266:33 4.64286 
9 *266:33 *4364:CLK 9.72857 
10 *266:33 *266:46 9.03571 
11 *266:46 *4356:CLK 13.8 
12 *266:46 *4363:CLK 16.8893 
13 *266:18 *266:66 2.85714 
14 *266:66 *4371:CLK 14.3357 
15 *266:66 *266:79 13.4286 
16 *266:79 *4374:CLK 13.0321 
17 *266:79 *266:94 4.375 
18 *266:94 *4376:CLK 38.8714 
19 *266:94 *4367:CLK 9.72857 
20 *266:16 *4372:CLK 9.3 
21 *266:12 *4370:CLK 11.2286 
22 *266:8 *4434:A 16.0857 
23 *266:4 *266:151 11 
24 *266:151 *4368:CLK 13.8 
25 *266:151 *4366:CLK 18.7821 
*END

*D_NET *267 0.0161345
*CONN
*I *4345:CLK I *D sky130_fd_sc_hd__dfxtp_1
*I *4343:CLK I *D sky130_fd_sc_hd__dfxtp_1
*I *4360:CLK I *D sky130_fd_sc_hd__dfxtp_1
*I *4358:CLK I *D sky130_fd_sc_hd__dfxtp_1
*I *4359:CLK I *D sky130_fd_sc_hd__dfxtp_1
*I *4347:CLK I *D sky130_fd_sc_hd__dfxtp_1
*I *4346:CLK I *D sky130_fd_sc_hd__dfxtp_1
*I *4348:CLK I *D sky130_fd_sc_hd__dfxtp_1
*I *4353:CLK I *D sky130_fd_sc_hd__dfxtp_1
*I *4362:CLK I *D sky130_fd_sc_hd__dfxtp_1
*I *4361:CLK I *D sky130_fd_sc_hd__dfxtp_1
*I *4369:CLK I *D sky130_fd_sc_hd__dfxtp_1
*I *4355:CLK I *D sky130_fd_sc_hd__dfxtp_1
*I *4354:CLK I *D sky130_fd_sc_hd__dfxtp_1
*I *4427:X O *D sky130_fd_sc_hd__clkbuf_16
*CAP
1 *4345:CLK 0.000755951
2 *4343:CLK 0.000480805
3 *4360:CLK 0
4 *4358:CLK 0.000622
5 *4359:CLK 2.36895e-05
6 *4347:CLK 2.67798e-05
7 *4346:CLK 0
8 *4348:CLK 0.00055584
9 *4353:CLK 0
10 *4362:CLK 0
11 *4361:CLK 4.86603e-05
12 *4369:CLK 0
13 *4355:CLK 0
14 *4354:CLK 0.000227972
15 *4427:X 0
16 *267:118 0.000731683
17 *267:116 0.000722321
18 *267:101 0.000555633
19 *267:72 0.000599592
20 *267:65 0.000586249
21 *267:59 0.00068371
22 *267:57 0.000514544
23 *267:38 0.000162785
24 *267:14 0.00053357
25 *267:12 0.000561865
26 *267:8 0.000384705
27 *267:6 0.000405662
28 *267:4 0.000919051
29 *4345:CLK *4158:C1 0
30 *4345:CLK *4345:D 5.7298e-05
31 *4345:CLK *4615:A 0
32 *4345:CLK *467:8 3.28897e-05
33 *4347:CLK *4161:A1 1.34631e-05
34 *4347:CLK *4616:A 3.08664e-05
35 *4348:CLK *4348:D 0.000103329
36 *4354:CLK *4163:A1 4.81011e-05
37 *4354:CLK *4354:D 2.44472e-05
38 *4358:CLK *4195:A1 0.000184643
39 *4358:CLK *4195:B1 0.000126439
40 *4358:CLK *301:8 0.000151333
41 *4359:CLK *4194:B 5.52238e-05
42 *267:6 *4158:C1 0.000130164
43 *267:8 *4158:C1 0.00033784
44 *267:8 *305:12 1.5424e-05
45 *267:12 *4362:D 0.000144199
46 *267:12 *305:12 8.32852e-05
47 *267:14 *4181:C1 7.05143e-06
48 *267:14 *4184:A1 0
49 *267:14 *4355:D 0.000103267
50 *267:14 *4362:D 0.000102545
51 *267:14 *373:343 0
52 *267:14 *373:355 3.66495e-05
53 *267:14 *460:179 0
54 *267:14 *468:14 0
55 *267:38 *460:179 0
56 *267:59 *4347:D 0
57 *267:59 *4446:A 0.000171375
58 *267:59 *495:12 0
59 *267:65 *4177:B 0
60 *267:65 *4178:B1 0
61 *267:65 *4178:C1 0
62 *267:65 *4347:D 0
63 *267:65 *4353:D 1.64343e-05
64 *267:65 *4570:A 5.97411e-05
65 *267:65 *4614:A 0.000488483
66 *267:65 *495:12 0
67 *267:72 *4614:A 0.000152928
68 *267:101 *4446:A 0.000214342
69 *267:101 *4561:A 4.17661e-06
70 *267:101 *495:12 0
71 *267:116 *495:10 0
72 led[3] *4348:CLK 0
73 led[5] *4347:CLK 5.20751e-05
74 *539:DIODE *4345:CLK 5.80706e-06
75 *571:DIODE *267:8 5.52238e-05
76 *4153:A1 *267:101 7.6644e-05
77 *4153:A2 *267:101 4.18442e-05
78 *4163:B1 *267:65 0.000240342
79 *4164:B1 *267:65 0.000223877
80 *4164:B1 *267:72 6.62868e-05
81 *4178:A2 *267:14 3.73407e-05
82 *4195:A2 *4358:CLK 0.000137983
83 *4197:A2 *4358:CLK 0
84 *4359:D *267:116 0.00010326
85 *4360:D *4358:CLK 0.000222859
86 *4360:D *267:118 0.000115549
87 *4361:D *4361:CLK 9.76689e-05
88 *4427:A *267:8 5.52302e-05
89 *4535:A *267:14 0
90 *4563:A *4348:CLK 0.000181796
91 *4572:A *4354:CLK 0
92 *4572:A *267:14 0
93 *4578:A *4348:CLK 7.04737e-05
94 *97:77 *267:14 8.22802e-05
95 *97:77 *267:38 7.04538e-05
96 *100:206 *4348:CLK 3.17163e-05
97 *100:215 *4348:CLK 8.56269e-05
98 *100:245 *4348:CLK 9.24395e-05
99 *100:263 *4345:CLK 4.43256e-05
100 *100:263 *267:6 0.000137983
101 *100:263 *267:59 0
102 *100:263 *267:101 0
103 *133:147 *4345:CLK 0.000216304
104 *134:81 *4361:CLK 9.76689e-05
105 *134:93 *4345:CLK 9.03031e-05
106 *134:207 *4345:CLK 0.000121671
107 *143:31 *4354:CLK 0.000128154
108 *143:31 *267:14 0.00015234
*RES
1 *4427:X *267:4 9.3 
2 *267:4 *267:6 3.82143 
3 *267:6 *267:8 5.875 
4 *267:8 *267:12 7.5 
5 *267:12 *267:14 7.41071 
6 *267:14 *4354:CLK 17.9429 
7 *267:14 *4355:CLK 13.8 
8 *267:12 *267:38 7.05357 
9 *267:38 *4369:CLK 9.3 
10 *267:38 *4361:CLK 11.0679 
11 *267:8 *4362:CLK 9.3 
12 *267:6 *267:57 4.5 
13 *267:57 *267:59 2.55357 
14 *267:59 *267:65 17.375 
15 *267:65 *4353:CLK 9.3 
16 *267:65 *267:72 1.76786 
17 *267:72 *4348:CLK 29.5679 
18 *267:72 *4346:CLK 9.3 
19 *267:59 *4347:CLK 14.7464 
20 *267:57 *267:101 7.71429 
21 *267:101 *4359:CLK 14.3357 
22 *267:101 *267:116 6.875 
23 *267:116 *267:118 2.17857 
24 *267:118 *4358:CLK 29.0321 
25 *267:118 *4360:CLK 9.3 
26 *267:116 *4343:CLK 16.8179 
27 *267:4 *4345:CLK 32.6929 
*END

*D_NET *268 0.00263842
*CONN
*I *4140:C I *D sky130_fd_sc_hd__or4b_1
*I *4463:A I *D sky130_fd_sc_hd__dlygate4sd3_1
*I *4374:Q O *D sky130_fd_sc_hd__dfxtp_1
*CAP
1 *4140:C 0.000560003
2 *4463:A 0.000284483
3 *4374:Q 0
4 *268:6 0.000844487
5 *4140:C *4140:A 6.58013e-05
6 *4140:C *4140:D_N 0.000227532
7 *4140:C *4231:A1 9.58508e-05
8 *4140:C *4232:A 0.000186379
9 *4140:C *4367:D 0
10 *4140:C *365:6 9.76689e-05
11 *4463:A *4367:D 0
12 *4212:C1 *4463:A 0
13 *4232:D *4140:C 0
14 *4376:CLK *4140:C 0
15 *4376:CLK *4463:A 0
16 *122:80 *4463:A 0
17 *177:72 *4463:A 0.000276211
18 *266:79 *4463:A 0
*RES
1 *4374:Q *268:6 13.8 
2 *268:6 *4463:A 19.55 
3 *268:6 *4140:C 26.1393 
*END

*D_NET *269 0.000842152
*CONN
*I *4448:A I *D sky130_fd_sc_hd__dlygate4sd3_1
*I *4375:Q O *D sky130_fd_sc_hd__dfxtp_1
*CAP
1 *4448:A 0.00032968
2 *4375:Q 0.00032968
3 *4448:A *4140:D_N 4.46186e-06
4 *4448:A *379:32 0
5 *4230:B *4448:A 9.90431e-05
6 *4230:C *4448:A 7.92879e-05
*RES
1 *4375:Q *4448:A 32.6179 
*END

*D_NET *270 0.00402663
*CONN
*I *4464:A I *D sky130_fd_sc_hd__dlygate4sd3_1
*I *4237:A1 I *D sky130_fd_sc_hd__a21o_1
*I *4238:B I *D sky130_fd_sc_hd__nand3_1
*I *4140:A I *D sky130_fd_sc_hd__or4b_1
*I *4376:Q O *D sky130_fd_sc_hd__dfxtp_1
*CAP
1 *4464:A 9.34165e-05
2 *4237:A1 0.000156542
3 *4238:B 0.000146779
4 *4140:A 0.000276515
5 *4376:Q 0.000120688
6 *270:16 0.000548309
7 *270:10 0.000486457
8 *270:8 0.000419004
9 *4140:A *4140:D_N 0.000237275
10 *4140:A *4231:A1 0.000357952
11 *4140:A *4231:B1 4.0342e-06
12 *4140:A *357:8 2.16719e-05
13 *4140:A *365:6 2.07382e-05
14 *4237:A1 *4237:B1 0.000140933
15 *4238:B *4234:A 0.000230475
16 *4238:B *4238:A 0.000204825
17 *4464:A *4239:C 0
18 *4464:A *380:10 0
19 *270:10 *357:8 3.34366e-05
20 *270:10 *380:10 0
21 *270:16 *357:8 0.000106567
22 *4140:C *4140:A 6.58013e-05
23 *4233:A_N *4140:A 0
24 *4236:A *4238:B 0.000272371
25 *4238:C *4238:B 1.74352e-05
26 *4239:A *270:10 0
27 *4239:A *270:16 0
28 *4239:B *4237:A1 8.25843e-06
29 *4376:D *270:10 0
30 *4442:A *4238:B 5.71472e-05
31 *188:32 *4140:A 0
*RES
1 *4376:Q *270:8 15.1571 
2 *270:8 *270:10 3.76786 
3 *270:10 *270:16 2.30357 
4 *270:16 *4140:A 21.1036 
5 *270:16 *4238:B 18.8536 
6 *270:10 *4237:A1 16.3893 
7 *270:8 *4464:A 15.4429 
*END

*D_NET *271 0.000146286
*CONN
*I *4441:A I *D sky130_fd_sc_hd__dlygate4sd3_1
*I *4377:Q O *D sky130_fd_sc_hd__dfxtp_1
*CAP
1 *4441:A 4.55279e-05
2 *4377:Q 4.55279e-05
3 *4239:B *4441:A 5.52302e-05
*RES
1 *4377:Q *4441:A 19.5643 
*END

*D_NET *272 0.00187418
*CONN
*I *4471:A I *D sky130_fd_sc_hd__dlygate4sd3_1
*I *4378:Q O *D sky130_fd_sc_hd__dfxtp_1
*CAP
1 *4471:A 0.00025015
2 *4378:Q 0.00025015
3 *4471:A *4133:B 5.56943e-05
4 *4471:A *4240:A 0.000166416
5 *4471:A *441:6 8.12055e-05
6 *4226:C1 *4471:A 0.000363837
7 *4482:A *4471:A 0.000658743
8 *97:22 *4471:A 0
9 *259:160 *4471:A 4.79842e-05
*RES
1 *4378:Q *4471:A 37.1714 
*END

*D_NET *273 0.00348728
*CONN
*I *4516:A I *D sky130_fd_sc_hd__dlygate4sd3_1
*I *4110:C I *D sky130_fd_sc_hd__or4b_1
*I *4103:B I *D sky130_fd_sc_hd__or2_1
*I *4379:Q O *D sky130_fd_sc_hd__dfxtp_1
*CAP
1 *4516:A 8.16635e-05
2 *4110:C 0.000149237
3 *4103:B 0.00017287
4 *4379:Q 0.000155277
5 *273:12 0.000530266
6 *273:10 0.000445099
7 *4103:B *278:12 5.66157e-05
8 *4110:C *4110:B 5.33334e-05
9 *4110:C *276:33 4.88637e-05
10 *4110:C *277:14 5.71472e-05
11 *4110:C *278:12 0.000114577
12 *273:12 *4593:A 0.000259285
13 *273:12 *278:12 8.08022e-05
14 *4135:A2 *4103:B 0.000137983
15 *4244:A_N *4516:A 5.33005e-05
16 *4244:C *4516:A 7.32272e-05
17 *4244:C *273:12 7.60306e-05
18 *4246:A2 *273:10 3.17148e-05
19 *4246:A2 *273:12 0.00017309
20 *4379:D *273:10 0
21 *4594:A *273:12 1.17968e-05
22 *134:40 *273:10 0
23 *134:40 *273:12 0
24 *140:66 *4110:C 4.87854e-05
25 *140:181 *273:12 0.000113887
26 *198:6 *4516:A 0.000218045
27 *200:23 *4103:B 0.000179817
28 *200:23 *273:12 0.000164561
*RES
1 *4379:Q *273:10 16.2821 
2 *273:10 *273:12 7.41071 
3 *273:12 *4103:B 17.7107 
4 *273:12 *4110:C 17.6214 
5 *273:10 *4516:A 16.3893 
*END

*D_NET *274 0.00429304
*CONN
*I *4475:A I *D sky130_fd_sc_hd__dlygate4sd3_1
*I *4119:C_N I *D sky130_fd_sc_hd__or4bb_1
*I *4117:A I *D sky130_fd_sc_hd__or4bb_1
*I *4112:D_N I *D sky130_fd_sc_hd__or4b_1
*I *4104:C I *D sky130_fd_sc_hd__or4b_1
*I *4389:Q O *D sky130_fd_sc_hd__dfxtp_1
*CAP
1 *4475:A 0
2 *4119:C_N 6.83881e-05
3 *4117:A 0
4 *4112:D_N 0.000139939
5 *4104:C 0.000102206
6 *4389:Q 0.000408365
7 *274:20 0.000287112
8 *274:16 0.000313771
9 *274:8 0.000608782
10 *4104:C *4104:D_N 9.71197e-05
11 *4104:C *4117:B 2.61337e-05
12 *4104:C *285:44 9.90367e-05
13 *4112:D_N *4104:D_N 5.33005e-05
14 *4112:D_N *4120:C 5.52238e-05
15 *4112:D_N *275:18 0.000140933
16 *4112:D_N *285:38 1.5424e-05
17 *4119:C_N *4119:B 0.000170964
18 *274:8 *4273:B 3.18676e-05
19 *274:8 *4274:B 0.000136951
20 *274:8 *391:6 8.66063e-05
21 *274:16 *4119:B 4.58194e-05
22 *274:16 *275:10 0.000198748
23 *274:16 *275:12 3.17067e-05
24 *274:16 *275:18 5.80706e-06
25 *274:20 *4117:B 2.36032e-05
26 *4113:D *4119:C_N 0.000271345
27 *4113:D *274:20 0.000104974
28 *4118:D *4104:C 5.62995e-05
29 *4278:B1 *274:8 0.00014183
30 *4476:A *274:8 7.77652e-05
31 *4477:A *274:8 1.32552e-05
32 *140:89 *274:16 8.30773e-05
33 *140:100 *4104:C 5.58941e-05
34 *140:100 *274:16 0.000198705
35 *140:100 *274:20 0.00014209
*RES
1 *4389:Q *274:8 17.2464 
2 *274:8 *274:16 15.2321 
3 *274:16 *274:20 6.44643 
4 *274:20 *4104:C 16.7107 
5 *274:20 *4112:D_N 16.3893 
6 *274:16 *4117:A 9.3 
7 *274:16 *4119:C_N 12.3 
8 *274:8 *4475:A 9.3 
*END

*D_NET *275 0.00383796
*CONN
*I *4453:A I *D sky130_fd_sc_hd__dlygate4sd3_1
*I *4119:B I *D sky130_fd_sc_hd__or4bb_1
*I *4117:D_N I *D sky130_fd_sc_hd__or4bb_1
*I *4104:D_N I *D sky130_fd_sc_hd__or4b_1
*I *4112:A I *D sky130_fd_sc_hd__or4b_1
*I *4390:Q O *D sky130_fd_sc_hd__dfxtp_1
*CAP
1 *4453:A 0.000164087
2 *4119:B 0.000383421
3 *4117:D_N 0
4 *4104:D_N 5.3497e-05
5 *4112:A 0
6 *4390:Q 5.79176e-05
7 *275:18 0.000184133
8 *275:12 0.000155315
9 *275:10 0.000881959
10 *275:6 0.000695865
11 *4104:D_N *285:44 1.5424e-05
12 *4119:B *4104:A 5.33433e-05
13 *275:6 *369:12 2.27416e-05
14 *275:10 *391:25 0
15 *275:18 *4120:C 9.25014e-06
16 *275:18 *285:38 0.00010096
17 *275:18 *285:44 2.14658e-05
18 *275:18 *286:25 0
19 *4104:C *4104:D_N 9.71197e-05
20 *4112:D_N *4104:D_N 5.33005e-05
21 *4112:D_N *275:18 0.000140933
22 *4113:D *4119:B 2.24079e-05
23 *4119:C_N *4119:B 0.000170964
24 *4275:B1 *275:10 0
25 *4276:A *275:10 0
26 *4278:B1 *275:10 0.00014576
27 *4476:A *275:10 6.74911e-05
28 *140:100 *275:18 5.85228e-05
29 *213:49 *275:10 0
30 *213:49 *275:12 0
31 *219:39 *275:10 0
32 *274:16 *4119:B 4.58194e-05
33 *274:16 *275:10 0.000198748
34 *274:16 *275:12 3.17067e-05
35 *274:16 *275:18 5.80706e-06
*RES
1 *4390:Q *275:6 10.2464 
2 *275:6 *275:10 14.3393 
3 *275:10 *275:12 0.732143 
4 *275:12 *275:18 8.10714 
5 *275:18 *4112:A 9.3 
6 *275:18 *4104:D_N 10.6571 
7 *275:12 *4117:D_N 13.8 
8 *275:10 *4119:B 20.5143 
9 *275:6 *4453:A 11.9071 
*END

*D_NET *276 0.00718346
*CONN
*I *4110:D_N I *D sky130_fd_sc_hd__or4b_1
*I *4114:B I *D sky130_fd_sc_hd__or4bb_1
*I *4119:D_N I *D sky130_fd_sc_hd__or4bb_1
*I *4104:B I *D sky130_fd_sc_hd__or4b_1
*I *4597:A I *D sky130_fd_sc_hd__dlygate4sd3_1
*I *4391:Q O *D sky130_fd_sc_hd__dfxtp_1
*CAP
1 *4110:D_N 0
2 *4114:B 0
3 *4119:D_N 0.000143213
4 *4104:B 5.10877e-05
5 *4597:A 0
6 *4391:Q 0.000534679
7 *276:39 0.000625765
8 *276:33 0.000761922
9 *276:23 0.000949662
10 *276:10 0.00115388
11 *4104:B *4104:A 2.89016e-05
12 *4119:D_N *4104:A 0.000173097
13 *4119:D_N *4117:B 0
14 *276:10 *4391:D 0.000214693
15 *276:10 *344:10 0.000113298
16 *276:23 *4392:D 0
17 *276:23 *277:8 6.42338e-05
18 *276:23 *277:14 0.000193175
19 *276:33 *4103:A 0
20 *276:33 *4114:A 0.000219734
21 *276:33 *4280:A 0
22 *276:33 *277:14 0.000112418
23 *276:33 *277:18 0.000177941
24 *276:39 *4104:A 2.89114e-05
25 *4108:A *276:33 5.52238e-05
26 *4108:A *276:39 0.000449426
27 *4108:B *276:39 9.90367e-05
28 *4108:D *4119:D_N 1.69115e-05
29 *4110:C *276:33 4.88637e-05
30 *4113:A *276:33 0.000241198
31 *4113:C *276:33 3.34783e-05
32 *4118:D *4119:D_N 0
33 *4118:D *276:39 6.27493e-05
34 *4276:A *276:10 0.000175493
35 *4391:CLK *276:10 5.52238e-05
36 *134:40 *276:23 0.000399238
37 *134:40 *276:33 0
*RES
1 *4391:Q *276:10 19.3179 
2 *276:10 *4597:A 9.3 
3 *276:10 *276:23 23.1786 
4 *276:23 *276:33 17.5 
5 *276:33 *276:39 7.25 
6 *276:39 *4104:B 10.2643 
7 *276:39 *4119:D_N 21.1571 
8 *276:33 *4114:B 9.3 
9 *276:23 *4110:D_N 9.3 
*END

*D_NET *277 0.00395382
*CONN
*I *4484:A I *D sky130_fd_sc_hd__dlygate4sd3_1
*I *4110:A I *D sky130_fd_sc_hd__or4b_1
*I *4119:A I *D sky130_fd_sc_hd__or4bb_1
*I *4104:A I *D sky130_fd_sc_hd__or4b_1
*I *4114:A I *D sky130_fd_sc_hd__or4bb_1
*I *4392:Q O *D sky130_fd_sc_hd__dfxtp_1
*CAP
1 *4484:A 4.31276e-05
2 *4110:A 0
3 *4119:A 0
4 *4104:A 0.000158517
5 *4114:A 9.88872e-05
6 *4392:Q 7.5294e-05
7 *277:35 0.000428233
8 *277:18 0.000438986
9 *277:14 0.000372415
10 *277:8 0.000420454
11 *277:8 *4392:D 0
12 *277:14 *4280:A 0
13 *277:14 *4392:D 0
14 *4104:B *4104:A 2.89016e-05
15 *4108:D *4104:A 4.46186e-06
16 *4110:C *277:14 5.71472e-05
17 *4113:A *277:35 1.24368e-05
18 *4113:B *277:18 4.15914e-05
19 *4113:C *4114:A 0.000174797
20 *4113:D *4104:A 0.000142856
21 *4113:D *277:35 0.000219887
22 *4118:D *4104:A 9.60875e-05
23 *4119:B *4104:A 5.33433e-05
24 *4119:D_N *4104:A 0.000173097
25 *4121:C *4104:A 0
26 *4135:A2 *277:35 1.97695e-05
27 *4422:A *4484:A 9.71197e-05
28 *276:23 *277:8 6.42338e-05
29 *276:23 *277:14 0.000193175
30 *276:33 *4114:A 0.000219734
31 *276:33 *277:14 0.000112418
32 *276:33 *277:18 0.000177941
33 *276:39 *4104:A 2.89114e-05
*RES
1 *4392:Q *277:8 15.4429 
2 *277:8 *277:14 10.8393 
3 *277:14 *277:18 6.75 
4 *277:18 *4114:A 16.6571 
5 *277:18 *277:35 10.4107 
6 *277:35 *4104:A 22.8536 
7 *277:35 *4119:A 9.3 
8 *277:14 *4110:A 9.3 
9 *277:8 *4484:A 14.7464 
*END

*D_NET *278 0.00223368
*CONN
*I *4593:A I *D sky130_fd_sc_hd__dlygate4sd3_1
*I *4103:A I *D sky130_fd_sc_hd__or2_1
*I *4110:B I *D sky130_fd_sc_hd__or4b_1
*I *4380:Q O *D sky130_fd_sc_hd__dfxtp_1
*CAP
1 *4593:A 0.000244911
2 *4103:A 8.06541e-05
3 *4110:B 6.94563e-05
4 *4380:Q 0
5 *278:12 0.000419588
6 *278:6 0.000514389
7 *4593:A *4245:A1 0
8 *4593:A *4245:B1 0
9 *4593:A *4246:A1 1.56e-05
10 *4103:B *278:12 5.66157e-05
11 *4110:C *4110:B 5.33334e-05
12 *4110:C *278:12 0.000114577
13 *4594:A *4593:A 0.000179025
14 *134:24 *4103:A 6.90783e-05
15 *134:40 *4103:A 6.81083e-05
16 *140:66 *278:12 8.25843e-06
17 *273:12 *4593:A 0.000259285
18 *273:12 *278:12 8.08022e-05
19 *276:33 *4103:A 0
*RES
1 *4380:Q *278:6 13.8 
2 *278:6 *278:12 8.73214 
3 *278:12 *4110:B 10.2464 
4 *278:12 *4103:A 20.2464 
5 *278:6 *4593:A 18.9429 
*END

*D_NET *279 0.0050245
*CONN
*I *4581:A I *D sky130_fd_sc_hd__dlygate4sd3_1
*I *4111:C I *D sky130_fd_sc_hd__or4b_1
*I *4114:D_N I *D sky130_fd_sc_hd__or4bb_1
*I *4116:B I *D sky130_fd_sc_hd__or4bb_1
*I *4106:C I *D sky130_fd_sc_hd__nand4b_1
*I *4381:Q O *D sky130_fd_sc_hd__dfxtp_1
*CAP
1 *4581:A 0.000245182
2 *4111:C 2.23854e-05
3 *4114:D_N 0.000181334
4 *4116:B 0
5 *4106:C 0.000363253
6 *4381:Q 0
7 *279:18 0.000559178
8 *279:12 0.000511303
9 *279:8 0.000487117
10 *279:4 0.000575869
11 *4106:C *282:43 0.000142856
12 *4106:C *283:75 0
13 *4106:C *284:36 0
14 *4106:C *284:49 0
15 *4114:D_N *4109:A 0.000103267
16 *4114:D_N *4114:C_N 5.52238e-05
17 *4581:A *510:6 9.90431e-05
18 *4581:A *510:14 0
19 *279:12 *4111:B 2.95726e-05
20 *279:12 *4116:C_N 1.98839e-05
21 *279:12 *4116:D_N 5.33005e-05
22 *279:18 *4109:A 2.24646e-05
23 *279:18 *4111:B 0.000217141
24 *279:18 *281:43 7.6644e-05
25 *279:18 *282:43 1.33343e-05
26 *4113:C *4114:D_N 0.000136491
27 *4118:D *4114:D_N 5.52238e-05
28 *4121:B *4114:D_N 0.000103275
29 *4121:C *4114:D_N 0
30 *4122:B1_N *4581:A 0.000291793
31 *4248:A2 *4581:A 6.62898e-05
32 *4248:B1 *4581:A 0.000483375
33 *4249:B1 *4581:A 2.79092e-05
34 *4551:A *4106:C 3.69697e-05
35 *4551:A *4114:D_N 0
36 *4551:A *279:18 0
37 *200:25 *4581:A 4.48206e-05
*RES
1 *4381:Q *279:4 9.3 
2 *279:4 *279:8 4.66071 
3 *279:8 *279:12 6.67857 
4 *279:12 *279:18 8.01786 
5 *279:18 *4106:C 23.2464 
6 *279:18 *4116:B 9.3 
7 *279:12 *4114:D_N 19.0143 
8 *279:8 *4111:C 9.72857 
9 *279:4 *4581:A 26.7821 
*END

*D_NET *280 0.00211627
*CONN
*I *4550:A I *D sky130_fd_sc_hd__dlygate4sd3_1
*I *4116:C_N I *D sky130_fd_sc_hd__or4bb_1
*I *4382:Q O *D sky130_fd_sc_hd__dfxtp_1
*CAP
1 *4550:A 0
2 *4116:C_N 0.000231088
3 *4382:Q 0.000302393
4 *280:12 0.000533481
5 *4116:C_N *4111:A 9.60201e-05
6 *4116:C_N *4111:B 9.41642e-05
7 *4116:C_N *4116:D_N 5.33005e-05
8 *4116:C_N *281:23 0.000217155
9 *4116:C_N *281:43 0.000168939
10 *4116:C_N *480:32 0
11 *280:12 *4105:B 0.000235232
12 *4250:A2 *280:12 9.71197e-05
13 *4252:C *280:12 0
14 *134:24 *4116:C_N 0
15 *200:29 *280:12 6.74911e-05
16 *279:12 *4116:C_N 1.98839e-05
*RES
1 *4382:Q *280:12 24.9964 
2 *280:12 *4116:C_N 24.2286 
3 *280:12 *4550:A 9.3 
*END

*D_NET *281 0.00478867
*CONN
*I *4109:A I *D sky130_fd_sc_hd__nand2_1
*I *4116:D_N I *D sky130_fd_sc_hd__or4bb_1
*I *4115:C I *D sky130_fd_sc_hd__or4b_1
*I *4106:A_N I *D sky130_fd_sc_hd__nand4b_1
*I *4468:A I *D sky130_fd_sc_hd__dlygate4sd3_1
*I *4383:Q O *D sky130_fd_sc_hd__dfxtp_1
*CAP
1 *4109:A 0.000138707
2 *4116:D_N 3.66981e-05
3 *4115:C 0
4 *4106:A_N 6.92251e-05
5 *4468:A 0
6 *4383:Q 0.000378377
7 *281:43 0.000278327
8 *281:27 0.000100681
9 *281:23 0.000506034
10 *281:10 0.000750033
11 *4106:A_N *4106:D 6.84551e-05
12 *4106:A_N *283:75 0.000273269
13 *4106:A_N *284:16 6.79057e-05
14 *4109:A *4111:A 2.8266e-06
15 *4109:A *480:32 0
16 *4116:D_N *4111:B 2.28499e-05
17 *281:10 *385:12 9.27685e-05
18 *281:10 *434:20 3.53917e-05
19 *281:23 *282:19 0
20 *281:23 *282:43 0
21 *281:23 *385:12 4.1331e-06
22 *281:27 *4111:A 0.000186662
23 *281:27 *4111:D_N 0.000173328
24 *281:27 *283:75 5.71472e-05
25 *281:27 *284:16 1.21289e-05
26 *281:43 *4111:A 6.8646e-06
27 *281:43 *282:43 0
28 *4113:C *4109:A 8.00806e-05
29 *4114:D_N *4109:A 0.000103267
30 *4116:C_N *4116:D_N 5.33005e-05
31 *4116:C_N *281:23 0.000217155
32 *4116:C_N *281:43 0.000168939
33 *4121:A *4109:A 0.000132316
34 *4122:B1_N *4109:A 8.15738e-05
35 *4257:A2 *281:10 0.000250201
36 *4257:A2 *281:23 0.000237514
37 *4383:CLK *281:23 0
38 *105:8 *281:23 5.01028e-05
39 *134:24 *281:23 0
40 *260:75 *281:23 0
41 *279:12 *4116:D_N 5.33005e-05
42 *279:18 *4109:A 2.24646e-05
43 *279:18 *281:43 7.6644e-05
*RES
1 *4383:Q *281:10 20.3714 
2 *281:10 *4468:A 13.8 
3 *281:10 *281:23 8.375 
4 *281:23 *281:27 6.67857 
5 *281:27 *4106:A_N 12.3179 
6 *281:27 *4115:C 9.3 
7 *281:23 *281:43 2.55357 
8 *281:43 *4116:D_N 14.7464 
9 *281:43 *4109:A 17.7821 
*END

*D_NET *282 0.00322775
*CONN
*I *4111:B I *D sky130_fd_sc_hd__or4b_1
*I *4116:A I *D sky130_fd_sc_hd__or4bb_1
*I *4115:D_N I *D sky130_fd_sc_hd__or4b_1
*I *4106:D I *D sky130_fd_sc_hd__nand4b_1
*I *4465:A I *D sky130_fd_sc_hd__dlygate4sd3_1
*I *4384:Q O *D sky130_fd_sc_hd__dfxtp_1
*CAP
1 *4111:B 0.000168028
2 *4116:A 3.82418e-05
3 *4115:D_N 0
4 *4106:D 5.84015e-05
5 *4465:A 0.000109274
6 *4384:Q 0.000150875
7 *282:43 0.000377754
8 *282:21 5.84015e-05
9 *282:19 0.000558152
10 *282:6 0.000646817
11 *4106:D *283:75 1.74352e-05
12 *4106:D *284:16 0.00014285
13 *4465:A *4256:A 7.50473e-05
14 *282:6 *4256:A 9.01258e-06
15 *282:19 *4106:B 0
16 *282:19 *4257:A1 5.10822e-05
17 *4106:A_N *4106:D 6.84551e-05
18 *4106:C *282:43 0.000142856
19 *4116:C_N *4111:B 9.41642e-05
20 *4116:D_N *4111:B 2.28499e-05
21 *4121:B *4111:B 4.37999e-05
22 *4121:B *282:43 3.05446e-05
23 *4466:A *282:19 0
24 *4551:A *282:43 5.01213e-05
25 *105:8 *282:19 0
26 *105:14 *282:19 0
27 *260:12 *282:19 5.35423e-05
28 *279:12 *4111:B 2.95726e-05
29 *279:18 *4111:B 0.000217141
30 *279:18 *282:43 1.33343e-05
31 *281:23 *282:19 0
32 *281:23 *282:43 0
33 *281:43 *282:43 0
*RES
1 *4384:Q *282:6 11.0679 
2 *282:6 *4465:A 11.8 
3 *282:6 *282:19 11 
4 *282:19 *282:21 4.5 
5 *282:21 *4106:D 11.5143 
6 *282:21 *4115:D_N 9.3 
7 *282:19 *282:43 8.10714 
8 *282:43 *4116:A 10.0321 
9 *282:43 *4111:B 13.55 
*END

*D_NET *283 0.00773043
*CONN
*I *4111:D_N I *D sky130_fd_sc_hd__or4b_1
*I *4115:B I *D sky130_fd_sc_hd__or4b_1
*I *4107:C I *D sky130_fd_sc_hd__or4b_1
*I *4265:C I *D sky130_fd_sc_hd__and4_1
*I *4120:D_N I *D sky130_fd_sc_hd__or4b_1
*I *4262:B I *D sky130_fd_sc_hd__and3_1
*I *4509:A I *D sky130_fd_sc_hd__dlygate4sd3_1
*I *4385:Q O *D sky130_fd_sc_hd__dfxtp_1
*CAP
1 *4111:D_N 0.000238472
2 *4115:B 2.23854e-05
3 *4107:C 2.23854e-05
4 *4265:C 0
5 *4120:D_N 0.000223849
6 *4262:B 0.000183933
7 *4509:A 0
8 *4385:Q 0.000146185
9 *283:75 0.000779667
10 *283:58 0.000905194
11 *283:49 0.000363998
12 *283:34 0.000360978
13 *283:23 0.000646673
14 *283:10 0.000471795
15 *4111:D_N *4111:A 6.42095e-05
16 *4111:D_N *480:32 6.8646e-06
17 *4120:D_N *4265:B 3.13225e-05
18 *4120:D_N *286:6 5.33334e-05
19 *4120:D_N *419:12 0
20 *283:23 *4263:A1 0
21 *283:23 *4386:D 4.86429e-05
22 *283:23 *410:14 0.000101129
23 *283:34 *4265:B 0.000254413
24 *283:34 *410:14 9.25014e-06
25 *283:58 *4107:D_N 2.28598e-05
26 *283:58 *4266:A1 0.000129515
27 *283:58 *376:6 0.000139907
28 *283:75 *4107:A 5.71472e-05
29 *283:75 *284:16 8.78006e-05
30 *283:75 *284:49 0.000116526
31 *4106:A_N *283:75 0.000273269
32 *4106:C *283:75 0
33 *4106:D *283:75 1.74352e-05
34 *4118:C *4111:D_N 0.00054892
35 *4121:D *283:58 5.72784e-05
36 *4121:D *283:75 4.29414e-05
37 *4260:A2 *283:10 2.60158e-05
38 *4260:A2 *283:23 4.1331e-06
39 *4265:D *283:34 0
40 *4266:A2 *4262:B 0.000269428
41 *4269:B1 *4120:D_N 0
42 *4384:CLK *283:10 3.30352e-05
43 *4386:CLK *283:23 3.17163e-05
44 *4495:A *283:23 4.15128e-05
45 *4495:A *283:34 3.4323e-05
46 *4551:A *283:75 0.000163737
47 *134:24 *4111:D_N 9.57064e-05
48 *140:108 *283:23 0
49 *207:19 *283:10 2.34204e-05
50 *207:36 *283:23 0
51 *213:49 *4120:D_N 0.000196269
52 *260:24 *283:10 7.73662e-05
53 *260:24 *283:23 6.16744e-05
54 *260:37 *283:10 1.33343e-05
55 *281:27 *4111:D_N 0.000173328
56 *281:27 *283:75 5.71472e-05
*RES
1 *4385:Q *283:10 16.6929 
2 *283:10 *4509:A 13.8 
3 *283:10 *283:23 6.66071 
4 *283:23 *4262:B 16.3893 
5 *283:23 *283:34 3.46429 
6 *283:34 *4120:D_N 18.7464 
7 *283:34 *283:49 4.5 
8 *283:49 *4265:C 9.3 
9 *283:49 *283:58 5.07143 
10 *283:58 *4107:C 9.72857 
11 *283:58 *283:75 20.7143 
12 *283:75 *4115:B 9.72857 
13 *283:75 *4111:D_N 25.6036 
*END

*D_NET *284 0.0053794
*CONN
*I *4107:B I *D sky130_fd_sc_hd__or4b_1
*I *4120:C I *D sky130_fd_sc_hd__or4b_1
*I *4494:A I *D sky130_fd_sc_hd__dlygate4sd3_1
*I *4111:A I *D sky130_fd_sc_hd__or4b_1
*I *4115:A I *D sky130_fd_sc_hd__or4b_1
*I *4386:Q O *D sky130_fd_sc_hd__dfxtp_1
*CAP
1 *4107:B 0
2 *4120:C 0.000321208
3 *4494:A 0
4 *4111:A 0.000259616
5 *4115:A 0
6 *4386:Q 0.00019089
7 *284:49 0.000615375
8 *284:36 0.000335292
9 *284:16 0.000861737
10 *284:10 0.000834136
11 *4111:A *480:32 0.000112439
12 *4120:C *4107:D_N 0
13 *4120:C *4112:B 1.21258e-05
14 *4120:C *285:38 0.000134242
15 *4120:C *286:6 1.92789e-05
16 *4120:C *286:8 1.61893e-05
17 *4120:C *286:25 0
18 *284:36 *4106:B 0
19 *284:49 *4107:A 4.25523e-05
20 *4106:A_N *284:16 6.79057e-05
21 *4106:C *284:36 0
22 *4106:C *284:49 0
23 *4106:D *284:16 0.00014285
24 *4109:A *4111:A 2.8266e-06
25 *4111:D_N *4111:A 6.42095e-05
26 *4112:D_N *4120:C 5.52238e-05
27 *4116:C_N *4111:A 9.60201e-05
28 *4121:D *4120:C 9.78909e-05
29 *4121:D *284:49 6.57815e-05
30 *140:100 *4120:C 0
31 *140:100 *284:49 0.000270958
32 *140:108 *284:10 8.00806e-05
33 *140:108 *284:36 7.12747e-05
34 *140:108 *284:49 0.000167691
35 *260:20 *284:10 2.23758e-05
36 *275:18 *4120:C 9.25014e-06
37 *281:27 *4111:A 0.000186662
38 *281:27 *284:16 1.21289e-05
39 *281:43 *4111:A 6.8646e-06
40 *283:75 *284:16 8.78006e-05
41 *283:75 *284:49 0.000116526
*RES
1 *4386:Q *284:10 16.6036 
2 *284:10 *284:16 12.75 
3 *284:16 *4115:A 9.3 
4 *284:16 *4111:A 24.1571 
5 *284:10 *284:36 1.03571 
6 *284:36 *4494:A 13.8 
7 *284:36 *284:49 11.4464 
8 *284:49 *4120:C 24.3536 
9 *284:49 *4107:B 9.3 
*END

*D_NET *285 0.00430076
*CONN
*I *4112:C I *D sky130_fd_sc_hd__or4b_1
*I *4117:B I *D sky130_fd_sc_hd__or4bb_1
*I *4107:A I *D sky130_fd_sc_hd__or4b_1
*I *4120:B I *D sky130_fd_sc_hd__or4b_1
*I *4459:A I *D sky130_fd_sc_hd__dlygate4sd3_1
*I *4387:Q O *D sky130_fd_sc_hd__dfxtp_1
*CAP
1 *4112:C 0
2 *4117:B 0.000220078
3 *4107:A 0.000119098
4 *4120:B 0
5 *4459:A 0
6 *4387:Q 0.000193469
7 *285:44 0.000453493
8 *285:38 0.000249503
9 *285:23 0.00058917
10 *285:10 0.000647453
11 *285:23 *286:6 0.000526414
12 *285:38 *4107:D_N 5.59013e-05
13 *285:38 *4112:B 0.000181796
14 *285:38 *286:6 1.24368e-05
15 *285:44 *4112:B 3.99614e-06
16 *285:44 *286:8 0
17 *4104:C *4117:B 2.61337e-05
18 *4104:C *285:44 9.90367e-05
19 *4104:D_N *285:44 1.5424e-05
20 *4108:D *4107:A 0
21 *4112:D_N *285:38 1.5424e-05
22 *4113:D *4117:B 0.00010326
23 *4118:D *4117:B 0.000103253
24 *4119:D_N *4117:B 0
25 *4120:C *285:38 0.000134242
26 *4121:D *4107:A 5.52238e-05
27 *4121:D *285:38 9.25014e-06
28 *4267:A *285:10 0
29 *4267:A *285:23 0
30 *4269:B1 *285:10 6.74911e-05
31 *4269:B1 *285:23 7.8327e-05
32 *140:100 *4107:A 3.06406e-05
33 *140:100 *4117:B 6.45184e-05
34 *213:19 *285:23 0
35 *274:20 *4117:B 2.36032e-05
36 *275:18 *285:38 0.00010096
37 *275:18 *285:44 2.14658e-05
38 *283:75 *4107:A 5.71472e-05
39 *284:49 *4107:A 4.25523e-05
*RES
1 *4387:Q *285:10 16.8 
2 *285:10 *4459:A 13.8 
3 *285:10 *285:23 11.5 
4 *285:23 *4120:B 9.3 
5 *285:23 *285:38 12.8571 
6 *285:38 *285:44 6.69643 
7 *285:44 *4107:A 16.5857 
8 *285:44 *4117:B 18.6393 
9 *285:38 *4112:C 9.3 
*END

*D_NET *286 0.00503109
*CONN
*I *4112:B I *D sky130_fd_sc_hd__or4b_1
*I *4120:A I *D sky130_fd_sc_hd__or4b_1
*I *4502:A I *D sky130_fd_sc_hd__dlygate4sd3_1
*I *4117:C_N I *D sky130_fd_sc_hd__or4bb_1
*I *4274:C I *D sky130_fd_sc_hd__and4_1
*I *4271:B I *D sky130_fd_sc_hd__and3_1
*I *4107:D_N I *D sky130_fd_sc_hd__or4b_1
*I *4388:Q O *D sky130_fd_sc_hd__dfxtp_1
*CAP
1 *4112:B 0.000100609
2 *4120:A 0
3 *4502:A 0
4 *4117:C_N 0.000105472
5 *4274:C 0.000200844
6 *4271:B 0
7 *4107:D_N 0.000173147
8 *4388:Q 0.000283469
9 *286:31 0.000374449
10 *286:25 0.000385204
11 *286:10 0.000279274
12 *286:8 3.38007e-05
13 *286:6 0.000417879
14 *4107:D_N *4265:B 6.0038e-05
15 *4107:D_N *4266:A1 0.00014285
16 *4107:D_N *376:6 5.71472e-05
17 *4274:C *4274:B 0.000150625
18 *286:6 *4269:A1 2.95841e-05
19 *4120:C *4107:D_N 0
20 *4120:C *4112:B 1.21258e-05
21 *4120:C *286:6 1.92789e-05
22 *4120:C *286:8 1.61893e-05
23 *4120:C *286:25 0
24 *4120:D_N *286:6 5.33334e-05
25 *4121:D *4107:D_N 0.000207792
26 *4268:B *286:6 4.88637e-05
27 *4269:A2 *286:6 5.52302e-05
28 *4269:B1 *286:6 0.000230475
29 *4274:D *4274:C 0.000330816
30 *4275:A2 *4274:C 0
31 *4477:A *4274:C 0
32 *140:100 *4107:D_N 0
33 *213:49 *4107:D_N 8.5662e-05
34 *213:49 *4274:C 0.000130583
35 *213:49 *286:25 8.98897e-05
36 *213:49 *286:31 0.000153054
37 *215:10 *4274:C 0
38 *215:10 *286:31 0
39 *217:10 *4274:C 0
40 *275:18 *286:25 0
41 *283:58 *4107:D_N 2.28598e-05
42 *285:23 *286:6 0.000526414
43 *285:38 *4107:D_N 5.59013e-05
44 *285:38 *4112:B 0.000181796
45 *285:38 *286:6 1.24368e-05
46 *285:44 *4112:B 3.99614e-06
47 *285:44 *286:8 0
*RES
1 *4388:Q *286:6 17.2286 
2 *286:6 *286:8 0.732143 
3 *286:8 *286:10 4.5 
4 *286:10 *4107:D_N 18.8357 
5 *286:10 *286:25 6.75 
6 *286:25 *286:31 7.80357 
7 *286:31 *4271:B 13.8 
8 *286:31 *4274:C 19.6929 
9 *286:25 *4117:C_N 11.0679 
10 *286:25 *4502:A 9.3 
11 *286:8 *4120:A 9.3 
12 *286:6 *4112:B 11.4964 
*END

*D_NET *287 0.00205528
*CONN
*I *4536:A I *D sky130_fd_sc_hd__dlygate4sd3_1
*I *4124:A2 I *D sky130_fd_sc_hd__a221o_1
*I *4394:Q O *D sky130_fd_sc_hd__dfxtp_1
*CAP
1 *4536:A 0.000247144
2 *4124:A2 0
3 *4394:Q 0.000245324
4 *287:14 0.000492468
5 *4536:A *4124:A1 0.000251939
6 *287:14 *4124:A1 3.33238e-05
7 *287:14 *4124:B2 2.8266e-06
8 *287:14 *450:8 0
9 *4394:CLK *287:14 1.71774e-05
10 *4522:A *4536:A 5.71472e-05
11 *97:22 *4536:A 0.00014183
12 *100:338 *4536:A 0.00046391
13 *100:338 *287:14 1.05729e-05
14 *140:18 *287:14 0
15 *140:38 *287:14 0
16 *259:160 *4536:A 9.16173e-05
*RES
1 *4394:Q *287:14 21.9339 
2 *287:14 *4124:A2 9.3 
3 *287:14 *4536:A 17.0232 
*END

*D_NET *288 0.00185629
*CONN
*I *4559:A I *D sky130_fd_sc_hd__dlygate4sd3_1
*I *4395:Q O *D sky130_fd_sc_hd__dfxtp_2
*CAP
1 *4559:A 0.000566242
2 *4395:Q 0.000566242
3 *4559:A *4231:A1 0.000272371
4 *4559:A *4231:B1 7.30247e-05
5 *4559:A *488:47 7.85979e-05
6 *4208:B *4559:A 3.34295e-05
7 *4230:B *4559:A 0
8 *4375:D *4559:A 0.000148903
9 *4450:A *4559:A 2.27416e-05
10 *188:10 *4559:A 2.34204e-05
11 *188:21 *4559:A 3.60626e-05
12 *188:32 *4559:A 3.52562e-05
*RES
1 *4395:Q *4559:A 40.2964 
*END

*D_NET *289 0.00039818
*CONN
*I *4440:A I *D sky130_fd_sc_hd__dlygate4sd3_1
*I *4396:Q O *D sky130_fd_sc_hd__dfxtp_2
*CAP
1 *4440:A 8.84984e-05
2 *4396:Q 8.84984e-05
3 *4440:A *373:257 6.65398e-05
4 *4440:A *460:25 0.000125731
5 *4440:A *488:20 2.89114e-05
*RES
1 *4396:Q *4440:A 29.7786 
*END

*D_NET *290 0.01122
*CONN
*I *4531:A I *D sky130_fd_sc_hd__dlygate4sd3_1
*I *4124:B2 I *D sky130_fd_sc_hd__a221o_1
*I *4192:A I *D sky130_fd_sc_hd__or2_1
*I *4397:Q O *D sky130_fd_sc_hd__dfxtp_4
*CAP
1 *4531:A 0
2 *4124:B2 0.00022269
3 *4192:A 0
4 *4397:Q 0.000256732
5 *290:29 0.000486788
6 *290:16 0.0022832
7 *290:8 0.00280403
8 *4124:B2 *373:222 0
9 *290:8 *4152:B2 0.000125724
10 *290:16 *4123:A 2.59355e-05
11 *290:16 *4192:B 1.97695e-05
12 *290:16 *4232:C 0.000166485
13 *290:16 *488:8 0.000446603
14 *290:16 *488:121 0.000175251
15 *290:29 *373:231 7.50601e-05
16 *290:29 *373:244 4.78056e-05
17 *4135:A1 *290:29 9.60875e-05
18 *4135:A2 *290:29 9.41642e-05
19 *4144:B *4124:B2 2.85551e-05
20 *4152:B1 *290:8 0.000145035
21 *4152:B1 *290:16 1.21859e-05
22 *4152:B1 *290:29 7.48111e-05
23 *4193:C1 *290:16 3.05446e-05
24 *4216:A2 *290:16 0.000218045
25 *4368:D *290:16 2.55587e-05
26 *4396:D *290:29 0.00010326
27 *4397:D *290:8 0
28 *4431:A *290:16 9.41642e-05
29 *100:338 *4124:B2 1.21289e-05
30 *122:12 *4124:B2 0.000315894
31 *122:32 *4124:B2 0.000209491
32 *122:45 *290:16 0.000100616
33 *122:54 *290:16 7.47252e-05
34 *122:80 *290:16 1.02821e-05
35 *140:38 *4124:B2 0
36 *178:10 *290:16 5.52302e-05
37 *178:69 *290:16 0.000879853
38 *259:164 *290:16 0.00027502
39 *263:10 *290:8 3.80904e-05
40 *263:12 *290:8 5.41797e-06
41 *263:12 *290:29 0.000154029
42 *263:14 *290:29 0.000211205
43 *263:18 *4124:B2 0.000385717
44 *263:18 *290:29 0.000191403
45 *263:63 *290:8 7.15591e-05
46 *263:65 *290:8 0.00011914
47 *263:78 *290:8 4.89264e-05
48 *287:14 *4124:B2 2.8266e-06
*RES
1 *4397:Q *290:8 21.0589 
2 *290:8 *290:16 47.1161 
3 *290:16 *4192:A 9.3 
4 *290:8 *290:29 13.2411 
5 *290:29 *4124:B2 25.6929 
6 *290:29 *4531:A 9.3 
*END

*D_NET *291 0.000464981
*CONN
*I *4449:A I *D sky130_fd_sc_hd__dlygate4sd3_1
*I *4366:Q O *D sky130_fd_sc_hd__dfxtp_1
*CAP
1 *4449:A 0.000200378
2 *4366:Q 0.000200378
3 *4449:A *4210:A 0
4 *4460:A *4449:A 6.42242e-05
*RES
1 *4366:Q *4449:A 30.6 
*END

*D_NET *292 0.00203438
*CONN
*I *4560:A I *D sky130_fd_sc_hd__dlygate4sd3_1
*I *4213:A I *D sky130_fd_sc_hd__or2_1
*I *4367:Q O *D sky130_fd_sc_hd__dfxtp_1
*CAP
1 *4560:A 0.000300973
2 *4213:A 0.000447849
3 *4367:Q 0
4 *292:6 0.000748822
5 *4560:A *490:10 0
6 *4210:B *4213:A 0
7 *4210:B *4560:A 0
8 *4212:A2 *4213:A 0
9 *4212:B1 *4213:A 2.19778e-05
10 *4212:B1 *4560:A 2.79092e-05
11 *4216:A2 *4213:A 0.000126639
12 *4216:B1 *4213:A 0.000231917
13 *4216:C1 *4213:A 3.06406e-05
14 *4376:CLK *4560:A 0
15 *4548:A *4213:A 0
16 *4548:A *4560:A 0
17 *178:69 *4213:A 9.76491e-05
18 *178:86 *4213:A 0
19 *266:151 *4213:A 0
*RES
1 *4367:Q *292:6 13.8 
2 *292:6 *4213:A 23.0321 
3 *292:6 *4560:A 19.2286 
*END

*D_NET *293 0.000329313
*CONN
*I *4547:A I *D sky130_fd_sc_hd__dlygate4sd3_1
*I *4368:Q O *D sky130_fd_sc_hd__dfxtp_1
*CAP
1 *4547:A 0.000137042
2 *4368:Q 0.000137042
3 *4547:A *4197:A1 5.52302e-05
4 *4547:A *476:10 0
5 *4193:C1 *4547:A 0
*RES
1 *4368:Q *4547:A 29.7786 
*END

*D_NET *294 0.000206275
*CONN
*I *4538:A I *D sky130_fd_sc_hd__dlygate4sd3_1
*I *4369:Q O *D sky130_fd_sc_hd__dfxtp_1
*CAP
1 *4538:A 6.82389e-05
2 *4369:Q 6.82389e-05
3 *4538:A *4218:A1 6.97972e-05
4 *4539:A *4538:A 0
*RES
1 *4369:Q *4538:A 29.2429 
*END

*D_NET *295 0.000542277
*CONN
*I *4534:A I *D sky130_fd_sc_hd__dlygate4sd3_1
*I *4370:Q O *D sky130_fd_sc_hd__dfxtp_1
*CAP
1 *4534:A 9.73595e-05
2 *4370:Q 9.73595e-05
3 *4534:A *4201:A1 0
4 *4534:A *4218:A1 0
5 *4534:A *4219:A 7.77751e-05
6 *4534:A *460:179 0.00012501
7 *4534:A *468:14 0.000144773
*RES
1 *4370:Q *4534:A 30.6 
*END

*D_NET *296 0.000729724
*CONN
*I *4532:A I *D sky130_fd_sc_hd__dlygate4sd3_1
*I *4371:Q O *D sky130_fd_sc_hd__dfxtp_1
*CAP
1 *4532:A 0.000198088
2 *4371:Q 0.000198088
3 *4532:A *461:25 0
4 *4537:A *4532:A 0
5 *259:213 *4532:A 0.000307878
6 *266:12 *4532:A 2.56694e-05
*RES
1 *4371:Q *4532:A 31.6714 
*END

*D_NET *297 0.00234897
*CONN
*I *4557:A I *D sky130_fd_sc_hd__dlygate4sd3_1
*I *4223:A I *D sky130_fd_sc_hd__or2_1
*I *4372:Q O *D sky130_fd_sc_hd__dfxtp_1
*CAP
1 *4557:A 0.000522136
2 *4223:A 9.7641e-05
3 *4372:Q 0
4 *297:4 0.000619777
5 *4557:A *4526:A 0.000128146
6 *4557:A *298:10 0.000153047
7 *4220:A2 *4557:A 0.000488486
8 *4224:C1 *4223:A 1.72894e-05
9 *266:22 *4557:A 0.000322446
*RES
1 *4372:Q *297:4 9.3 
2 *297:4 *4223:A 11.0857 
3 *297:4 *4557:A 28.2464 
*END

*D_NET *298 0.00168251
*CONN
*I *4526:A I *D sky130_fd_sc_hd__dlygate4sd3_1
*I *4225:A I *D sky130_fd_sc_hd__or2_1
*I *4373:Q O *D sky130_fd_sc_hd__dfxtp_1
*CAP
1 *4526:A 0.000168429
2 *4225:A 0
3 *4373:Q 0.000318101
4 *298:10 0.000486529
5 *4526:A *4372:D 0.000197006
6 *298:10 *4373:D 0
7 *4557:A *4526:A 0.000128146
8 *4557:A *298:10 0.000153047
9 *97:45 *298:10 0.000110076
10 *178:14 *4526:A 0
11 *266:22 *4526:A 2.39876e-05
12 *266:66 *4526:A 9.71896e-05
*RES
1 *4373:Q *298:10 19.1571 
2 *298:10 *4225:A 13.8 
3 *298:10 *4526:A 18.4786 
*END

*D_NET *299 0.000306495
*CONN
*I *4521:A I *D sky130_fd_sc_hd__dlygate4sd3_1
*I *4393:Q O *D sky130_fd_sc_hd__dfxtp_1
*CAP
1 *4521:A 0.000125633
2 *4393:Q 0.000125633
3 *4167:A2 *4521:A 0
4 *151:10 *4521:A 5.52302e-05
*RES
1 *4393:Q *4521:A 29.7786 
*END

*D_NET *300 0.000124861
*CONN
*I *4437:A I *D sky130_fd_sc_hd__dlygate4sd3_1
*I *4398:Q O *D sky130_fd_sc_hd__dfxtp_1
*CAP
1 *4437:A 6.24307e-05
2 *4398:Q 6.24307e-05
*RES
1 *4398:Q *4437:A 19.5643 
*END

*D_NET *301 0.00363485
*CONN
*I *4098:A I *D sky130_fd_sc_hd__inv_2
*I *4446:A I *D sky130_fd_sc_hd__dlygate4sd3_1
*I *4192:B I *D sky130_fd_sc_hd__or2_1
*I *4358:Q O *D sky130_fd_sc_hd__dfxtp_1
*CAP
1 *4098:A 0
2 *4446:A 0.000269132
3 *4192:B 0.000261004
4 *4358:Q 0.000155263
5 *301:27 0.00060329
6 *301:8 0.000750425
7 *4192:B *4194:A 2.89114e-05
8 *4446:A *4161:A1 7.57312e-05
9 *4446:A *4561:A 2.71557e-05
10 *301:8 *362:185 0
11 *301:8 *460:192 1.31516e-05
12 *301:8 *479:10 1.81805e-05
13 *301:8 *479:12 1.76039e-05
14 *301:27 *4178:A1 0.000120645
15 *301:27 *4561:A 2.84109e-05
16 *301:27 *362:170 0
17 *301:27 *460:192 0.000121606
18 *301:27 *479:12 7.80929e-05
19 led[5] *4446:A 5.30637e-06
20 *4153:A2 *301:27 5.49489e-05
21 *4193:C1 *4192:B 5.30637e-06
22 *4195:C1 *301:8 0.000269529
23 *4197:C1 *4192:B 6.97494e-05
24 *4358:CLK *301:8 0.000151333
25 *134:81 *301:27 0.000104584
26 *267:59 *4446:A 0.000171375
27 *267:101 *4446:A 0.000214342
28 *290:16 *4192:B 1.97695e-05
*RES
1 *4358:Q *301:8 18.175 
2 *301:8 *4192:B 18.5857 
3 *301:8 *301:27 12.5893 
4 *301:27 *4446:A 24.6393 
5 *301:27 *4098:A 9.3 
*END

*D_NET *302 0.000546387
*CONN
*I *4566:A I *D sky130_fd_sc_hd__dlygate4sd3_1
*I *4359:Q O *D sky130_fd_sc_hd__dfxtp_1
*CAP
1 *4566:A 0.000273194
2 *4359:Q 0.000273194
3 *4566:A *4343:D 0
4 *4566:A *4549:A 0
5 *4566:A *495:10 0
6 *4585:A *4566:A 0
*RES
1 *4359:Q *4566:A 32.2071 
*END

*D_NET *303 0.000345357
*CONN
*I *4549:A I *D sky130_fd_sc_hd__dlygate4sd3_1
*I *4360:Q O *D sky130_fd_sc_hd__dfxtp_1
*CAP
1 *4549:A 0.000138585
2 *4360:Q 0.000138585
3 *4549:A *495:10 6.81872e-05
4 *4566:A *4549:A 0
*RES
1 *4360:Q *4549:A 30.1893 
*END

*D_NET *304 0.000880838
*CONN
*I *4561:A I *D sky130_fd_sc_hd__dlygate4sd3_1
*I *4361:Q O *D sky130_fd_sc_hd__dfxtp_1
*CAP
1 *4561:A 0.000181112
2 *4361:Q 0.000181112
3 *4561:A *4158:A1 1.98839e-05
4 *537:DIODE *4561:A 0.000137983
5 *4153:A2 *4561:A 0.000244838
6 *4446:A *4561:A 2.71557e-05
7 *134:81 *4561:A 5.61645e-05
8 *267:101 *4561:A 4.17661e-06
9 *301:27 *4561:A 2.84109e-05
*RES
1 *4361:Q *4561:A 32.35 
*END

*D_NET *305 0.00749053
*CONN
*I *4161:A1 I *D sky130_fd_sc_hd__a21o_1
*I *4555:A I *D sky130_fd_sc_hd__dlygate4sd3_1
*I *4200:B I *D sky130_fd_sc_hd__or2_1
*I *4362:Q O *D sky130_fd_sc_hd__dfxtp_1
*CAP
1 *4161:A1 0.000941835
2 *4555:A 0
3 *4200:B 0.000722739
4 *4362:Q 0.000612311
5 *305:16 0.000786096
6 *305:12 0.0016175
7 *4161:A1 *4530:A 3.17148e-05
8 *4161:A1 *4616:A 0.000485071
9 *4161:A1 *495:12 0
10 *4161:A1 *500:10 0.000173797
11 *4200:B *4184:A1 0.000271352
12 *4200:B *4201:A1 0
13 *4200:B *460:156 9.25014e-06
14 *4200:B *460:179 0.000197984
15 *4200:B *463:6 7.48301e-06
16 *4200:B *468:14 0.000315165
17 *305:12 *4158:C1 9.90367e-05
18 *305:12 *4362:D 0.000144199
19 *305:12 *362:164 2.56601e-05
20 *305:12 *460:179 0.000188586
21 led[5] *4161:A1 5.94433e-06
22 *4347:CLK *4161:A1 1.34631e-05
23 *4446:A *4161:A1 7.57312e-05
24 *4535:A *4200:B 0.000142856
25 *4556:A *4200:B 0
26 *4577:A *4161:A1 2.56601e-05
27 *100:263 *4161:A1 3.67548e-05
28 *133:147 *4161:A1 0.000384988
29 *259:64 *305:12 7.6644e-05
30 *267:8 *305:12 1.5424e-05
31 *267:12 *305:12 8.32852e-05
*RES
1 *4362:Q *305:12 26.8536 
2 *305:12 *305:16 1.26786 
3 *305:16 *4200:B 32.3893 
4 *305:16 *4555:A 9.3 
5 *305:12 *4161:A1 33.2643 
*END

*D_NET *306 0.00550746
*CONN
*I *4202:B I *D sky130_fd_sc_hd__or2_1
*I *4163:A1 I *D sky130_fd_sc_hd__a21o_1
*I *4579:A I *D sky130_fd_sc_hd__dlygate4sd3_1
*I *4363:Q O *D sky130_fd_sc_hd__dfxtp_1
*CAP
1 *4202:B 0
2 *4163:A1 0.000784408
3 *4579:A 9.1279e-05
4 *4363:Q 8.94048e-05
5 *306:24 0.00140798
6 *306:12 0.000621693
7 *4163:A1 *4179:A0 0.000315175
8 *4163:A1 *4180:B 9.90367e-05
9 *4163:A1 *4185:A1 0.000186662
10 *4163:A1 *4354:D 0.000443971
11 *4163:A1 *4356:D 4.18895e-05
12 *4163:A1 *4570:A 3.22964e-05
13 *4163:A1 *332:8 0.000229456
14 *4579:A *4184:C1 7.58664e-05
15 *4579:A *4187:A1 0
16 *306:24 *4202:A 3.76092e-05
17 *306:24 *4356:D 0.000192872
18 *4180:A *4163:A1 5.52238e-05
19 *4182:S *4163:A1 0.00014285
20 *4203:C1 *4579:A 4.57445e-05
21 *4203:C1 *306:24 9.64128e-05
22 *4205:A2 *306:24 0
23 *4354:CLK *4163:A1 4.81011e-05
24 *4558:A *306:24 0.000162662
25 *259:8 *306:12 2.89114e-05
26 *259:8 *306:24 1.39726e-05
27 *259:14 *306:12 2.94103e-05
28 *259:152 *306:12 5.97719e-05
29 *266:22 *306:12 0.000174805
*RES
1 *4363:Q *306:12 21.0857 
2 *306:12 *306:24 10.6964 
3 *306:24 *4579:A 20.8536 
4 *306:24 *4163:A1 26.8179 
5 *306:12 *4202:B 9.3 
*END

*D_NET *307 0.00756524
*CONN
*I *4204:B I *D sky130_fd_sc_hd__or2_1
*I *4189:A1 I *D sky130_fd_sc_hd__o211a_1
*I *4165:A1 I *D sky130_fd_sc_hd__a21o_1
*I *4364:Q O *D sky130_fd_sc_hd__dfxtp_1
*CAP
1 *4204:B 0.000439119
2 *4189:A1 0.000665899
3 *4165:A1 0.000644263
4 *4364:Q 0
5 *307:15 0.001346
6 *307:4 0.000885248
7 *4189:A1 *4189:C1 5.33005e-05
8 *4189:A1 *4364:D 0
9 *4189:A1 *373:145 0
10 *4204:B *553:DIODE 0.000171289
11 *4204:B *554:DIODE 5.52238e-05
12 *4204:B *4202:A 0.000196269
13 *4204:B *460:126 4.88637e-05
14 *4204:B *460:133 0.000615963
15 *555:DIODE *4204:B 0.000144773
16 *4151:A2 *4189:A1 0
17 *4189:B1 *4189:A1 4.09038e-05
18 *4365:CLK *4165:A1 0.000706537
19 *4365:CLK *307:15 0.000173328
20 *4520:A *4189:A1 8.07313e-05
21 *100:79 *4189:A1 0
22 *100:90 *4189:A1 2.77143e-05
23 *133:23 *4165:A1 3.18676e-05
24 *133:42 *4165:A1 9.89625e-05
25 *259:14 *4189:A1 0.000671059
26 *259:14 *4204:B 0.000139653
27 *259:152 *4204:B 0.000146474
28 *266:22 *4204:B 0
29 *266:33 *307:15 0.000181796
*RES
1 *4364:Q *307:4 9.3 
2 *307:4 *4165:A1 18.4607 
3 *307:4 *307:15 7.91071 
4 *307:15 *4189:A1 27.9071 
5 *307:15 *4204:B 25.175 
*END

*D_NET *308 0.00331919
*CONN
*I *4518:A I *D sky130_fd_sc_hd__dlygate4sd3_1
*I *4167:A1 I *D sky130_fd_sc_hd__a21o_1
*I *4365:Q O *D sky130_fd_sc_hd__dfxtp_1
*CAP
1 *4518:A 0
2 *4167:A1 0.000888707
3 *4365:Q 0.000182345
4 *308:10 0.00107105
5 *4167:A1 *4331:A1 8.87097e-05
6 *4167:A1 *4333:B 4.88637e-05
7 *4331:B1 *4167:A1 5.71472e-05
8 *4333:C *4167:A1 9.90431e-05
9 *4365:CLK *308:10 7.15846e-05
10 *4399:CLK *4167:A1 0.000237449
11 *4543:A *4167:A1 2.90075e-05
12 *133:42 *308:10 0.000186662
13 *252:33 *4167:A1 0.000355002
14 *252:37 *4167:A1 3.61629e-06
15 *259:14 *4167:A1 0
16 *259:14 *308:10 0
*RES
1 *4365:Q *308:10 17.8179 
2 *308:10 *4167:A1 26.6571 
3 *308:10 *4518:A 13.8 
*END

*D_NET *309 0.00298275
*CONN
*I *4137:D_N I *D sky130_fd_sc_hd__or4b_1
*I *4497:A I *D sky130_fd_sc_hd__dlygate4sd3_1
*I *4400:Q O *D sky130_fd_sc_hd__dfxtp_1
*CAP
1 *4137:D_N 0.000563668
2 *4497:A 7.33697e-05
3 *4400:Q 0.000599076
4 *309:6 0.00123611
5 *4137:D_N *4125:B 4.87953e-05
6 *309:6 *4400:D 0.000101117
7 *4293:A_N *4137:D_N 3.18747e-05
8 *4293:B *4137:D_N 1.54108e-05
9 *4400:CLK *4137:D_N 0.000192489
10 *4400:CLK *309:6 5.33433e-05
11 *228:8 *4497:A 6.74911e-05
12 *265:12 *4497:A 0
*RES
1 *4400:Q *309:6 16.4071 
2 *309:6 *4497:A 19.9429 
3 *309:6 *4137:D_N 16.8357 
*END

*D_NET *310 0.00241123
*CONN
*I *4514:A I *D sky130_fd_sc_hd__dlygate4sd3_1
*I *4137:C I *D sky130_fd_sc_hd__or4b_1
*I *4125:B I *D sky130_fd_sc_hd__or4b_1
*I *4401:Q O *D sky130_fd_sc_hd__dfxtp_1
*CAP
1 *4514:A 0.000237602
2 *4137:C 0
3 *4125:B 0.000237725
4 *4401:Q 0
5 *310:14 0.000376062
6 *310:4 0.000375939
7 *4514:A *4295:A 0
8 *4514:A *4295:B 3.34295e-05
9 *310:14 *4137:A 5.65955e-05
10 *310:14 *4137:B 0.000185118
11 *310:14 *372:6 4.17433e-05
12 *4137:D_N *4125:B 4.87953e-05
13 *4293:A_N *4125:B 0.000139632
14 *4293:C *4125:B 0
15 *4294:B *4125:B 9.83442e-05
16 *4294:B *310:14 4.01264e-05
17 *4295:C *4514:A 4.46186e-06
18 *4296:C *4514:A 0
19 *4297:B *4514:A 3.34295e-05
20 *4297:B *310:14 0.000120724
21 *4402:CLK *4514:A 5.33334e-05
22 *4507:A *4125:B 0
23 *225:10 *4125:B 0.000239878
24 *225:33 *4514:A 2.8266e-06
25 *230:14 *310:14 0
26 *232:14 *4514:A 8.54613e-05
27 *265:12 *4125:B 0
*RES
1 *4401:Q *310:4 9.3 
2 *310:4 *310:14 12.8393 
3 *310:14 *4125:B 23.6393 
4 *310:14 *4137:C 9.3 
5 *310:4 *4514:A 22.7107 
*END

*D_NET *311 0.00262479
*CONN
*I *4137:B I *D sky130_fd_sc_hd__or4b_1
*I *4506:A I *D sky130_fd_sc_hd__dlygate4sd3_1
*I *4402:Q O *D sky130_fd_sc_hd__dfxtp_1
*CAP
1 *4137:B 0.000393327
2 *4506:A 0
3 *4402:Q 0.000247472
4 *311:12 0.000640798
5 *4137:B *4125:A 0.000230475
6 *4137:B *4294:A 0.000269115
7 *4137:B *372:6 9.16074e-05
8 *4137:B *422:6 4.27935e-05
9 *311:12 *4403:D 0
10 *527:DIODE *4137:B 1.74352e-05
11 *4294:B *4137:B 2.24763e-05
12 *4296:C *4137:B 0.000419949
13 *4513:A *311:12 6.42242e-05
14 *310:14 *4137:B 0.000185118
*RES
1 *4402:Q *311:12 21.7107 
2 *311:12 *4506:A 9.3 
3 *311:12 *4137:B 20.3268 
*END

*D_NET *312 0.000208507
*CONN
*I *4456:A I *D sky130_fd_sc_hd__dlygate4sd3_1
*I *4403:Q O *D sky130_fd_sc_hd__dfxtp_1
*CAP
1 *4456:A 8.18479e-05
2 *4403:Q 8.18479e-05
3 *4456:A *4125:A 0
4 *574:DIODE *4456:A 4.48113e-05
*RES
1 *4403:Q *4456:A 29.2429 
*END

*D_NET *313 0.000941906
*CONN
*I *4511:A I *D sky130_fd_sc_hd__dlygate4sd3_1
*I *4404:Q O *D sky130_fd_sc_hd__dfxtp_1
*CAP
1 *4511:A 0.000209469
2 *4404:Q 0.000209469
3 *4511:A *427:12 0.000274294
4 *4288:A2 *4511:A 0
5 *130:55 *4511:A 6.78055e-06
6 *226:6 *4511:A 0.000186662
7 *226:21 *4511:A 5.52302e-05
8 *234:8 *4511:A 0
*RES
1 *4404:Q *4511:A 32.3679 
*END

*D_NET *314 0.000412399
*CONN
*I *4544:A I *D sky130_fd_sc_hd__dlygate4sd3_1
*I *4414:Q O *D sky130_fd_sc_hd__dfxtp_1
*CAP
1 *4544:A 0.000192551
2 *4414:Q 0.000192551
3 *4488:A *4544:A 0
4 *144:138 *4544:A 2.72967e-05
*RES
1 *4414:Q *4544:A 30.4929 
*END

*D_NET *315 0.000800325
*CONN
*I *4542:A I *D sky130_fd_sc_hd__dlygate4sd3_1
*I *4415:Q O *D sky130_fd_sc_hd__dfxtp_1
*CAP
1 *4542:A 0.000400162
2 *4415:Q 0.000400162
3 *4542:A *471:51 0
4 *4330:B1 *4542:A 0
*RES
1 *4415:Q *4542:A 32.6536 
*END

*D_NET *316 0.00227921
*CONN
*I *4487:A I *D sky130_fd_sc_hd__dlygate4sd3_1
*I *4335:A1 I *D sky130_fd_sc_hd__a31o_1
*I *4416:Q O *D sky130_fd_sc_hd__dfxtp_1
*CAP
1 *4487:A 0.000664834
2 *4335:A1 9.41026e-05
3 *4416:Q 0.000128836
4 *316:6 0.000887772
5 *4335:A1 *4334:B 0
6 *4335:A1 *471:12 2.60158e-05
7 *4487:A *4332:A1 4.53889e-05
8 *4487:A *4332:B1 3.80414e-05
9 *4487:A *4416:D 5.33091e-06
10 *4487:A *4417:D 0.000177234
11 *4487:A *350:14 0
12 *316:6 *4332:A1 7.15846e-05
13 *4336:B1 *4487:A 0
14 *4416:CLK *4487:A 4.01768e-05
15 *4489:A *4335:A1 7.6644e-05
16 *264:88 *4487:A 2.32517e-05
*RES
1 *4416:Q *316:6 11.0679 
2 *316:6 *4335:A1 20.2464 
3 *316:6 *4487:A 27.7464 
*END

*D_NET *317 0.000714253
*CONN
*I *4603:A I *D sky130_fd_sc_hd__dlygate4sd3_1
*I *4417:Q O *D sky130_fd_sc_hd__dfxtp_1
*CAP
1 *4603:A 0.000117691
2 *4417:Q 0.000117691
3 *4603:A *373:74 0.000224585
4 *100:106 *4603:A 3.14163e-05
5 *144:10 *4603:A 0.00022287
*RES
1 *4417:Q *4603:A 31.4036 
*END

*D_NET *318 0.000191685
*CONN
*I *4515:A I *D sky130_fd_sc_hd__dlygate4sd3_1
*I *4405:Q O *D sky130_fd_sc_hd__dfxtp_1
*CAP
1 *4515:A 7.18503e-05
2 *4405:Q 7.18503e-05
3 *234:64 *4515:A 4.79842e-05
*RES
1 *4405:Q *4515:A 29.2429 
*END

*D_NET *319 0.000722883
*CONN
*I *4472:A I *D sky130_fd_sc_hd__dlygate4sd3_1
*I *4406:Q O *D sky130_fd_sc_hd__dfxtp_1
*CAP
1 *4472:A 0.000109819
2 *4406:Q 0.000109819
3 *4472:A *446:10 0.000169572
4 *4309:C1 *4472:A 9.25014e-06
5 *144:24 *4472:A 3.34366e-05
6 *144:26 *4472:A 0.000290986
*RES
1 *4406:Q *4472:A 31.6714 
*END

*D_NET *320 0.000368944
*CONN
*I *4605:A I *D sky130_fd_sc_hd__dlygate4sd3_1
*I *4407:Q O *D sky130_fd_sc_hd__dfxtp_1
*CAP
1 *4605:A 5.91086e-05
2 *4407:Q 5.91086e-05
3 *4605:A *4309:B1 0.000100823
4 *4605:A *353:29 0.000149904
5 *264:41 *4605:A 0
*RES
1 *4407:Q *4605:A 29.5464 
*END

*D_NET *321 0.000238001
*CONN
*I *4490:A I *D sky130_fd_sc_hd__dlygate4sd3_1
*I *4408:Q O *D sky130_fd_sc_hd__dfxtp_1
*CAP
1 *4490:A 0.000119
2 *4408:Q 0.000119
*RES
1 *4408:Q *4490:A 20.6893 
*END

*D_NET *322 0.000579507
*CONN
*I *4587:A I *D sky130_fd_sc_hd__dlygate4sd3_1
*I *4409:Q O *D sky130_fd_sc_hd__dfxtp_1
*CAP
1 *4587:A 0.000289754
2 *4409:Q 0.000289754
3 *4587:A *4409:D 0
4 *4318:A *4587:A 0
5 *242:48 *4587:A 0
*RES
1 *4409:Q *4587:A 32.2071 
*END

*D_NET *323 0.000283349
*CONN
*I *4590:A I *D sky130_fd_sc_hd__dlygate4sd3_1
*I *4410:Q O *D sky130_fd_sc_hd__dfxtp_1
*CAP
1 *4590:A 4.46813e-05
2 *4410:Q 4.46813e-05
3 *4408:CLK *4590:A 6.65398e-05
4 *4591:A *4590:A 0.000127446
*RES
1 *4410:Q *4590:A 29.2429 
*END

*D_NET *324 0.00149803
*CONN
*I *4523:A I *D sky130_fd_sc_hd__dlygate4sd3_1
*I *4411:Q O *D sky130_fd_sc_hd__dfxtp_1
*CAP
1 *4523:A 0.000595268
2 *4411:Q 0.000595268
3 *4523:A *4411:D 0.000278581
4 *4411:CLK *4523:A 2.89114e-05
*RES
1 *4411:Q *4523:A 26.4393 
*END

*D_NET *325 0.00120118
*CONN
*I *4528:A I *D sky130_fd_sc_hd__dlygate4sd3_1
*I *4412:Q O *D sky130_fd_sc_hd__dfxtp_1
*CAP
1 *4528:A 0.000310099
2 *4412:Q 0.000310099
3 *152:16 *4528:A 0.000580984
*RES
1 *4412:Q *4528:A 34.7071 
*END

*D_NET *326 0.00155517
*CONN
*I *4327:B I *D sky130_fd_sc_hd__and4_2
*I *4500:A I *D sky130_fd_sc_hd__dlygate4sd3_1
*I *4413:Q O *D sky130_fd_sc_hd__dfxtp_1
*CAP
1 *4327:B 5.38369e-05
2 *4500:A 0.00010451
3 *4413:Q 0.000225861
4 *326:8 0.000384207
5 *4327:B *4327:A 5.80706e-06
6 *4327:B *4327:C 4.51691e-05
7 *4327:B *458:14 0.000106671
8 *4500:A *4413:D 0.00010326
9 *4500:A *458:14 7.2823e-05
10 *4500:A *458:20 2.72449e-05
11 *326:8 *4324:B1 0.000116746
12 *4327:D *4327:B 7.56152e-05
13 *4327:D *4500:A 0.000198279
14 *4335:A3 *4327:B 0
15 *247:60 *4500:A 3.51442e-05
*RES
1 *4413:Q *326:8 16.8 
2 *326:8 *4500:A 17.6214 
3 *326:8 *4327:B 15.7464 
*END

*D_NET *327 0.00176141
*CONN
*I *4170:A1 I *D sky130_fd_sc_hd__mux2_1
*I *4480:A I *D sky130_fd_sc_hd__dlygate4sd3_1
*I *4351:Q O *D sky130_fd_sc_hd__dfxtp_1
*CAP
1 *4170:A1 0
2 *4480:A 0.000263494
3 *4351:Q 0.000163749
4 *327:8 0.000427243
5 *4480:A *4170:A0 1.6271e-05
6 *4480:A *4337:A1 0.00013833
7 *4480:A *4337:B2 0.000172156
8 *4480:A *362:47 2.68406e-05
9 *327:8 *4170:A0 2.84026e-05
10 *4171:B *327:8 5.71472e-05
11 *4175:A2 *327:8 9.61456e-05
12 *4483:A *4480:A 0.000371629
13 *259:53 *4480:A 0
14 *259:64 *4480:A 0
*RES
1 *4351:Q *327:8 12.7286 
2 *327:8 *4480:A 25.2107 
3 *327:8 *4170:A1 9.3 
*END

*D_NET *328 0.00189946
*CONN
*I *4599:A I *D sky130_fd_sc_hd__dlygate4sd3_1
*I *4352:Q O *D sky130_fd_sc_hd__dfxtp_1
*CAP
1 *4599:A 0.000511115
2 *4352:Q 0.000511115
3 *4599:A *4175:B1 0.0001927
4 *4599:A *4575:A 0
5 *4599:A *346:10 5.33005e-05
6 *4599:A *373:48 5.52404e-05
7 *4599:A *495:12 0.000435505
8 led[3] *4599:A 0.000140481
9 *153:55 *4599:A 0
*RES
1 *4352:Q *4599:A 38.3679 
*END

*D_NET *329 0.00123346
*CONN
*I *4575:A I *D sky130_fd_sc_hd__dlygate4sd3_1
*I *4353:Q O *D sky130_fd_sc_hd__dfxtp_1
*CAP
1 *4575:A 0.000283357
2 *4353:Q 0.000283357
3 *4575:A *4174:B 7.57394e-05
4 *4575:A *4177:B 0
5 *4575:A *4614:A 0.000132231
6 *4575:A *346:10 0.000195555
7 *4575:A *495:12 0
8 *4599:A *4575:A 0
9 *4601:A *4575:A 0.000139208
10 *153:55 *4575:A 0.00012401
*RES
1 *4353:Q *4575:A 33.975 
*END

*D_NET *330 0.00133566
*CONN
*I *4570:A I *D sky130_fd_sc_hd__dlygate4sd3_1
*I *4354:Q O *D sky130_fd_sc_hd__dfxtp_1
*CAP
1 *4570:A 0.000493319
2 *4354:Q 0.000493319
3 *4570:A *4177:B 0
4 *4163:A1 *4570:A 3.22964e-05
5 *4163:B1 *4570:A 3.18747e-05
6 *4164:B1 *4570:A 0.00022511
7 *267:65 *4570:A 5.97411e-05
*RES
1 *4354:Q *4570:A 34.2964 
*END

*D_NET *331 0.00232087
*CONN
*I *4179:A0 I *D sky130_fd_sc_hd__mux2_1
*I *4182:A1 I *D sky130_fd_sc_hd__mux2_1
*I *4355:Q O *D sky130_fd_sc_hd__dfxtp_1
*CAP
1 *4179:A0 0.000513653
2 *4182:A1 0
3 *4355:Q 0.00021217
4 *331:12 0.000725823
5 *4179:A0 *4180:B 9.60875e-05
6 *4179:A0 *4185:A1 0.00014285
7 *4179:A0 *362:137 7.83587e-05
8 *4179:A0 *373:343 7.83587e-05
9 *331:12 *4185:A1 4.38128e-05
10 *331:12 *332:8 5.52302e-05
11 *4163:A1 *4179:A0 0.000315175
12 *4180:A *4179:A0 5.52238e-05
13 *4182:S *331:12 0
14 *4183:B *331:12 4.1331e-06
15 *4184:A2 *331:12 0
16 *4572:A *331:12 0
*RES
1 *4355:Q *331:12 21.8 
2 *331:12 *4182:A1 9.3 
3 *331:12 *4179:A0 26.0321 
*END

*D_NET *332 0.00112688
*CONN
*I *4185:A1 I *D sky130_fd_sc_hd__mux2_1
*I *4182:A0 I *D sky130_fd_sc_hd__mux2_1
*I *4356:Q O *D sky130_fd_sc_hd__dfxtp_1
*CAP
1 *4185:A1 9.81521e-05
2 *4182:A0 0
3 *4356:Q 0.000111225
4 *332:8 0.000209377
5 *4163:A1 *4185:A1 0.000186662
6 *4163:A1 *332:8 0.000229456
7 *4179:A0 *4185:A1 0.00014285
8 *4182:S *4185:A1 5.01117e-05
9 *4183:B *4185:A1 0
10 *331:12 *4185:A1 4.38128e-05
11 *331:12 *332:8 5.52302e-05
*RES
1 *4356:Q *332:8 11.9071 
2 *332:8 *4182:A0 9.3 
3 *332:8 *4185:A1 21.4071 
*END

*D_NET *333 0.00268126
*CONN
*I *4185:A0 I *D sky130_fd_sc_hd__mux2_1
*I *4188:B2 I *D sky130_fd_sc_hd__a22o_1
*I *4357:Q O *D sky130_fd_sc_hd__dfxtp_1
*CAP
1 *4185:A0 0.000259558
2 *4188:B2 0.00013314
3 *4357:Q 0.000346765
4 *333:8 0.000739462
5 *4188:B2 *4583:A 0.000197984
6 *4148:B *4188:B2 4.1331e-06
7 *4169:B *4188:B2 0.000103275
8 *4182:S *4185:A0 1.17968e-05
9 *4183:B *4185:A0 0
10 *4188:B1 *4188:B2 5.52238e-05
11 *133:42 *333:8 9.80173e-05
12 *133:51 *333:8 0.000318101
13 *133:55 *4188:B2 1.69021e-05
14 *133:93 *333:8 0.000140933
15 *142:36 *4185:A0 5.52238e-05
16 *153:21 *4185:A0 0.000164008
17 *153:21 *4188:B2 3.67356e-05
*RES
1 *4357:Q *333:8 18.8536 
2 *333:8 *4188:B2 17.8 
3 *333:8 *4185:A0 18.7107 
*END

*D_NET *334 0.000164892
*CONN
*I *4190:A I *D sky130_fd_sc_hd__and3_1
*I *4399:Q O *D sky130_fd_sc_hd__dfxtp_1
*CAP
1 *4190:A 6.94782e-05
2 *4399:Q 6.94782e-05
3 *264:119 *4190:A 2.59355e-05
*RES
1 *4399:Q *4190:A 19.5643 
*END

*D_NET *335 0.00907223
*CONN
*I *4338:B I *D sky130_fd_sc_hd__or3_1
*I *4512:A I *D sky130_fd_sc_hd__dlygate4sd3_1
*I *4139:A1 I *D sky130_fd_sc_hd__a221o_1
*I *4148:A I *D sky130_fd_sc_hd__and2_2
*I *4149:A I *D sky130_fd_sc_hd__nand2_2
*I *4188:A1 I *D sky130_fd_sc_hd__a22o_1
*I *4339:Q O *D sky130_fd_sc_hd__dfxtp_1
*CAP
1 *4338:B 0.00027082
2 *4512:A 0
3 *4139:A1 0.00016063
4 *4148:A 1.88267e-05
5 *4149:A 0.000161431
6 *4188:A1 7.83426e-05
7 *4339:Q 0
8 *335:55 0.000413504
9 *335:49 0.000523694
10 *335:18 0.000451978
11 *335:12 0.00153114
12 *335:4 0.00130011
13 *4139:A1 *4451:A 0.000175526
14 *4149:A *4169:A 0.000195349
15 *4338:B *4156:A1 3.6572e-05
16 *4338:B *4338:C 0.000177821
17 *335:12 *4101:A 1.58163e-05
18 *335:12 *4444:A 0
19 *335:12 *513:16 5.35423e-05
20 *335:18 *360:10 4.59075e-05
21 *335:55 *4156:A1 3.38518e-05
22 *335:55 *4418:D 9.09249e-05
23 *335:55 *4451:A 0.000173083
24 *335:55 *513:16 4.07257e-05
25 *527:DIODE *4139:A1 1.02504e-05
26 *4139:B1 *4139:A1 0.000227021
27 *4148:B *4148:A 5.52302e-05
28 *4148:B *4149:A 1.76135e-05
29 *4148:B *335:18 0.000382325
30 *4149:B *4149:A 1.04232e-05
31 *4169:B *4188:A1 7.3237e-05
32 *4298:B *4139:A1 9.60939e-05
33 *4337:C1 *335:12 8.10658e-05
34 *4338:A *4338:B 1.98839e-05
35 *4483:A *4338:B 4.70078e-05
36 *4483:A *335:12 0.000152861
37 *4584:A *335:18 0
38 *100:106 *335:12 6.46302e-05
39 *100:115 *335:12 2.88018e-06
40 *100:193 *4338:B 9.45471e-05
41 *130:29 *4149:A 2.58997e-05
42 *130:29 *335:18 7.83366e-05
43 *133:51 *4149:A 2.28499e-05
44 *133:55 *4149:A 9.42015e-05
45 *134:119 *335:55 0
46 *134:125 *4139:A1 5.59013e-05
47 *134:125 *335:55 0.000140368
48 *134:127 *4139:A1 0.000341488
49 *143:14 *4149:A 9.7659e-05
50 *143:74 *4149:A 1.04232e-05
51 *265:10 *335:12 0.000652315
52 *265:89 *335:12 0.000268121
*RES
1 *4339:Q *335:4 9.3 
2 *335:4 *335:12 27.0893 
3 *335:12 *335:18 10.2679 
4 *335:18 *4188:A1 15.1571 
5 *335:18 *4149:A 18.8536 
6 *335:12 *4148:A 9.83571 
7 *335:4 *335:49 4.5 
8 *335:49 *335:55 6.55357 
9 *335:55 *4139:A1 28.8536 
10 *335:55 *4512:A 13.8 
11 *335:49 *4338:B 19.5857 
*END

*D_NET *336 0.000602155
*CONN
*I *4444:A I *D sky130_fd_sc_hd__dlygate4sd3_1
*I *4340:Q O *D sky130_fd_sc_hd__dfxtp_2
*CAP
1 *4444:A 0.000272504
2 *4340:Q 0.000272504
3 *4444:A *4101:A 0
4 *4444:A *4478:A 0
5 *4444:A *360:20 0
6 *4444:A *513:16 0
7 *259:42 *4444:A 5.71472e-05
8 *335:12 *4444:A 0
*RES
1 *4340:Q *4444:A 32.2071 
*END

*D_NET *337 0.000731067
*CONN
*I *4478:A I *D sky130_fd_sc_hd__dlygate4sd3_1
*I *4341:Q O *D sky130_fd_sc_hd__dfxtp_1
*CAP
1 *4478:A 0.000231226
2 *4341:Q 0.000231226
3 *4478:A *360:20 0.000169572
4 *4478:A *394:30 9.90431e-05
5 *4444:A *4478:A 0
*RES
1 *4341:Q *4478:A 32.6179 
*END

*D_NET *338 0.0014749
*CONN
*I *4451:A I *D sky130_fd_sc_hd__dlygate4sd3_1
*I *4342:Q O *D sky130_fd_sc_hd__dfxtp_1
*CAP
1 *4451:A 0.000359874
2 *4342:Q 0.000359874
3 *4451:A *4156:A1 6.87574e-05
4 *4451:A *4156:B1 4.07248e-05
5 *4451:A *339:18 0
6 *574:DIODE *4451:A 0
7 *4139:A1 *4451:A 0.000175526
8 *4139:B1 *4451:A 9.71197e-05
9 *4586:A *4451:A 9.60875e-05
10 *12:9 *4451:A 0
11 *134:119 *4451:A 9.69119e-06
12 *134:125 *4451:A 9.41642e-05
13 *335:55 *4451:A 0.000173083
*RES
1 *4342:Q *4451:A 35.3857 
*END

*D_NET *339 0.00423727
*CONN
*I *4436:A I *D sky130_fd_sc_hd__buf_4
*I *4607:X O *D sky130_fd_sc_hd__clkbuf_1
*CAP
1 *4436:A 0
2 *4607:X 0.00114601
3 *339:18 0.00114601
4 *339:18 *572:DIODE 0
5 *339:18 *4160:A1 0
6 *339:18 *4160:C1 9.54798e-06
7 *339:18 *4344:D 0.000471833
8 *339:18 *4346:D 2.81598e-05
9 *339:18 *4567:A 5.58875e-06
10 *339:18 *373:12 0
11 led[3] *339:18 0
12 *4451:A *339:18 0
13 *4569:A *339:18 6.65398e-05
14 *12:9 *339:18 0.000188787
15 *100:206 *339:18 3.44781e-05
16 *134:115 *339:18 0.000755298
17 *134:119 *339:18 0.00038501
*RES
1 *4607:X *339:18 45.2627 
2 *339:18 *4436:A 9.3 
*END

*D_NET *340 0.00739715
*CONN
*I *4493:A I *D sky130_fd_sc_hd__dlygate4sd3_1
*I *4609:A I *D sky130_fd_sc_hd__buf_2
*I *4350:Q O *D sky130_fd_sc_hd__dfxtp_1
*CAP
1 *4493:A 0.000277128
2 *4609:A 0
3 *4350:Q 0
4 *340:10 0.0032712
5 *340:8 0.00335683
6 *340:4 0.000362754
7 *4493:A *4168:A1 4.15914e-05
8 *4168:B1 *4493:A 6.05161e-06
9 *4504:A *4493:A 8.15939e-05
*RES
1 *4350:Q *340:4 9.3 
2 *340:4 *340:8 5.44643 
3 *340:8 *340:10 60.2321 
4 *340:10 *4609:A 13.8 
5 *340:4 *4493:A 23.1214 
*END

*D_NET *341 0.00132811
*CONN
*I *4245:C1 I *D sky130_fd_sc_hd__o311a_2
*I *4246:A1 I *D sky130_fd_sc_hd__o21ai_1
*I *4593:X O *D sky130_fd_sc_hd__dlygate4sd3_1
*CAP
1 *4245:C1 0.000181615
2 *4246:A1 0.00010978
3 *4593:X 0
4 *341:4 0.000291395
5 *4245:C1 *4242:A3 0
6 *4245:C1 *356:27 0
7 *4245:C1 *460:54 0.000222878
8 *4593:A *4246:A1 1.56e-05
9 *4594:A *4246:A1 6.05161e-06
10 *259:173 *4245:C1 0.000136951
11 *259:173 *4246:A1 0.000363837
*RES
1 *4593:X *341:4 9.3 
2 *341:4 *4246:A1 12.7107 
3 *341:4 *4245:C1 22.5143 
*END

*D_NET *342 0.000112213
*CONN
*I *4247:B I *D sky130_fd_sc_hd__nor2_1
*I *4594:X O *D sky130_fd_sc_hd__dlygate4sd3_1
*CAP
1 *4247:B 1.40355e-05
2 *4594:X 1.40355e-05
3 *4247:A *4247:B 5.52302e-05
4 *4595:A *4247:B 2.89114e-05
*RES
1 *4594:X *4247:B 19.1357 
*END

*D_NET *343 0.000450641
*CONN
*I *4380:D I *D sky130_fd_sc_hd__dfxtp_1
*I *4595:X O *D sky130_fd_sc_hd__dlygate4sd3_1
*CAP
1 *4380:D 0.00012064
2 *4595:X 0.00012064
3 *4380:D *4122:A1 0.000127446
4 *4380:D *4245:A2 5.52302e-05
5 *4380:D *356:27 0
6 *4380:D *460:54 1.02504e-05
7 *140:66 *4380:D 1.64343e-05
*RES
1 *4595:X *4380:D 29.9438 
*END

*D_NET *344 0.00442786
*CONN
*I *4279:A1 I *D sky130_fd_sc_hd__a21o_1
*I *4278:A1 I *D sky130_fd_sc_hd__a21oi_1
*I *4277:A1 I *D sky130_fd_sc_hd__o21ai_1
*I *4280:B I *D sky130_fd_sc_hd__nand3_1
*I *4597:X O *D sky130_fd_sc_hd__dlygate4sd3_1
*CAP
1 *4279:A1 8.09298e-05
2 *4278:A1 0.000323895
3 *4277:A1 0
4 *4280:B 0.000298709
5 *4597:X 0.000316871
6 *344:14 0.00042464
7 *344:12 0.00048896
8 *344:10 0.000436933
9 *4276:A *344:10 0.000153054
10 *4279:A2 *4279:A1 9.71197e-05
11 *4280:C *4280:B 0.000562412
12 *4281:B *344:14 0
13 *4391:CLK *344:10 2.89016e-05
14 *4598:A *344:10 9.01238e-05
15 *4598:A *344:12 5.10822e-05
16 *4598:A *344:14 5.43491e-05
17 *219:19 *4280:B 1.02504e-05
18 *219:19 *344:14 0.000187733
19 *219:39 *344:10 2.31791e-05
20 *219:39 *344:12 9.40095e-05
21 *219:39 *344:14 7.90803e-05
22 *262:6 *4278:A1 0.000316184
23 *262:8 *4278:A1 0.00014285
24 *262:73 *4278:A1 5.33005e-05
25 *276:10 *344:10 0.000113298
*RES
1 *4597:X *344:10 19.4607 
2 *344:10 *344:12 1.33929 
3 *344:12 *344:14 3.46429 
4 *344:14 *4280:B 20.3893 
5 *344:14 *4277:A1 13.8 
6 *344:12 *4278:A1 18.4429 
7 *344:10 *4279:A1 15.1571 
*END

*D_NET *345 0.000632793
*CONN
*I *4391:D I *D sky130_fd_sc_hd__dfxtp_1
*I *4598:X O *D sky130_fd_sc_hd__dlygate4sd3_1
*CAP
1 *4391:D 0.000157417
2 *4598:X 0.000157417
3 *4349:CLK *4391:D 0.000103267
4 *276:10 *4391:D 0.000214693
*RES
1 *4598:X *4391:D 30.9795 
*END

*D_NET *346 0.0026644
*CONN
*I *4173:A1 I *D sky130_fd_sc_hd__mux2_1
*I *4170:A0 I *D sky130_fd_sc_hd__mux2_1
*I *4599:X O *D sky130_fd_sc_hd__dlygate4sd3_1
*CAP
1 *4173:A1 6.64388e-05
2 *4170:A0 0.000183867
3 *4599:X 0.000307254
4 *346:10 0.000557559
5 *4170:A0 *362:47 4.46186e-06
6 *4170:A0 *362:94 6.37408e-06
7 *4173:A1 *373:48 0.000141729
8 *346:10 *4173:A0 9.43259e-05
9 *346:10 *4614:A 4.13122e-06
10 led[3] *346:10 0.000398324
11 *4170:S *4170:A0 0.000228753
12 *4171:B *4170:A0 0
13 *4171:B *346:10 0
14 *4175:A2 *4170:A0 0.000141133
15 *4480:A *4170:A0 1.6271e-05
16 *4575:A *346:10 0.000195555
17 *4576:A *346:10 2.59355e-05
18 *4599:A *346:10 5.33005e-05
19 *133:93 *346:10 0
20 *153:55 *4170:A0 4.49293e-05
21 *153:55 *346:10 0.000165659
22 *259:64 *4170:A0 0
23 *327:8 *4170:A0 2.84026e-05
*RES
1 *4599:X *346:10 22.3 
2 *346:10 *4170:A0 18.3179 
3 *346:10 *4173:A1 15.1571 
*END

*D_NET *347 0.000601111
*CONN
*I *4174:B I *D sky130_fd_sc_hd__or2_1
*I *4600:X O *D sky130_fd_sc_hd__dlygate4sd3_1
*CAP
1 *4174:B 0.000219339
2 *4600:X 0.000219339
3 *4575:A *4174:B 7.57394e-05
4 *4601:A *4174:B 8.66933e-05
*RES
1 *4600:X *4174:B 22.4214 
*END

*D_NET *348 0.00158909
*CONN
*I *4175:B1 I *D sky130_fd_sc_hd__o211a_1
*I *4601:X O *D sky130_fd_sc_hd__dlygate4sd3_1
*CAP
1 *4175:B1 0.000485618
2 *4601:X 0.000485618
3 *4175:B1 *4175:A1 7.67687e-05
4 *4175:B1 *4583:A 1.02937e-05
5 *4175:B1 *362:35 0.000159859
6 *4175:B1 *495:12 4.39757e-05
7 *4175:A2 *4175:B1 4.10796e-05
8 *4599:A *4175:B1 0.0001927
9 *4601:A *4175:B1 6.13039e-05
10 *133:114 *4175:B1 3.18676e-05
11 *153:55 *4175:B1 0
*RES
1 *4601:X *4175:B1 36.4571 
*END

*D_NET *349 0.000690702
*CONN
*I *4352:D I *D sky130_fd_sc_hd__dfxtp_1
*I *4602:X O *D sky130_fd_sc_hd__dlygate4sd3_1
*CAP
1 *4352:D 0.000192992
2 *4602:X 0.000192992
3 *4352:D *362:35 0.000136951
4 *4352:D *373:48 1.64343e-05
5 *4352:D *495:12 0
6 *100:206 *4352:D 0.000151333
*RES
1 *4602:X *4352:D 31.0688 
*END

*D_NET *350 0.00240075
*CONN
*I *4096:A I *D sky130_fd_sc_hd__inv_2
*I *4130:A I *D sky130_fd_sc_hd__or4bb_1
*I *4335:B1 I *D sky130_fd_sc_hd__a31o_1
*I *4603:X O *D sky130_fd_sc_hd__dlygate4sd3_1
*CAP
1 *4096:A 0
2 *4130:A 0
3 *4335:B1 0.000194164
4 *4603:X 0.00013346
5 *350:14 0.000639859
6 *350:6 0.000579155
7 *4335:B1 *4130:B 0.000171859
8 *4335:B1 *4335:A2 0.00010096
9 *350:14 *4151:A1 0
10 *350:14 *4417:D 1.46717e-05
11 *4131:D *4335:B1 9.90431e-05
12 *4131:D *350:14 4.88637e-05
13 *4151:A2 *350:14 0
14 *4334:C *4335:B1 0.000230475
15 *4335:A3 *4335:B1 4.88637e-05
16 *4336:A1 *350:6 3.69047e-06
17 *4487:A *350:14 0
18 *259:14 *350:14 9.25014e-06
19 *259:20 *350:14 0.000126439
*RES
1 *4603:X *350:6 11.4786 
2 *350:6 *350:14 17.3929 
3 *350:14 *4335:B1 15.2107 
4 *350:14 *4130:A 9.3 
5 *350:6 *4096:A 9.3 
*END

*D_NET *351 0.0030814
*CONN
*I *4610:A I *D sky130_fd_sc_hd__buf_2
*I *4337:B2 I *D sky130_fd_sc_hd__o221a_1
*I *4418:Q O *D sky130_fd_sc_hd__dfxtp_1
*CAP
1 *4610:A 2.23854e-05
2 *4337:B2 0.000584697
3 *4418:Q 7.88073e-05
4 *351:8 0.00068589
5 *4337:B2 *4156:A1 0.000355229
6 *4337:B2 *4337:A1 0.00013833
7 *4337:B2 *4418:D 8.75859e-05
8 *4337:B2 *362:47 0
9 *351:8 *4418:D 9.31893e-05
10 uart_txd *351:8 5.33334e-05
11 *538:DIODE *4337:B2 4.70078e-05
12 *4138:A *4337:B2 0.000202128
13 *4139:B1 *4337:B2 6.5185e-05
14 *4337:A2 *4337:B2 4.10796e-05
15 *4337:B1 *4337:B2 7.7301e-06
16 *4480:A *4337:B2 0.000172156
17 *4481:A *4337:B2 0.00035746
18 *4483:A *4337:B2 1.39726e-05
19 *100:193 *4337:B2 7.52374e-05
*RES
1 *4418:Q *351:8 11.4964 
2 *351:8 *4337:B2 34.0143 
3 *351:8 *4610:A 9.72857 
*END

*D_NET *352 0.000763525
*CONN
*I *4417:D I *D sky130_fd_sc_hd__dfxtp_1
*I *4604:X O *D sky130_fd_sc_hd__dlygate4sd3_1
*CAP
1 *4417:D 0.000191978
2 *4604:X 0.000191978
3 *4336:B1 *4417:D 0
4 *4487:A *4417:D 0.000177234
5 *4604:A *4417:D 2.89114e-05
6 *259:14 *4417:D 7.252e-05
7 *259:20 *4417:D 6.97972e-05
8 *264:88 *4417:D 1.64343e-05
9 *350:14 *4417:D 1.46717e-05
*RES
1 *4604:X *4417:D 32.3723 
*END

*D_NET *353 0.00492164
*CONN
*I *4127:D_N I *D sky130_fd_sc_hd__or4b_1
*I *4310:A1 I *D sky130_fd_sc_hd__a31o_1
*I *4309:A1 I *D sky130_fd_sc_hd__o211a_1
*I *4308:A I *D sky130_fd_sc_hd__nand2_1
*I *4311:B I *D sky130_fd_sc_hd__and4_1
*I *4605:X O *D sky130_fd_sc_hd__dlygate4sd3_1
*CAP
1 *4127:D_N 0.00037353
2 *4310:A1 0
3 *4309:A1 0
4 *4308:A 0.000512252
5 *4311:B 2.61022e-05
6 *4605:X 0.000249315
7 *353:29 0.000802721
8 *353:16 0.000361504
9 *353:12 4.49328e-05
10 *353:10 0.000622845
11 *4127:D_N *4127:C 4.88637e-05
12 *4127:D_N *4305:A 0.0001399
13 *4127:D_N *388:23 9.60939e-05
14 *4308:A *4407:D 0
15 *353:10 *388:23 0
16 *353:16 *4310:B1 3.99614e-06
17 *353:29 *4304:B1 0
18 *353:29 *4309:B1 2.14474e-05
19 *4309:A2 *353:29 0.000176234
20 *4439:A *4308:A 5.71472e-05
21 *4491:A *4127:D_N 0
22 *4605:A *353:29 0.000149904
23 *4606:A *4308:A 0
24 *4606:A *353:29 0
25 *144:24 *4127:D_N 0.000268403
26 *144:60 *4311:B 0.000186662
27 *144:60 *353:16 0.000138919
28 *234:26 *4127:D_N 4.99508e-05
29 *234:26 *353:10 9.25014e-06
30 *234:28 *4311:B 0.000186662
31 *234:28 *353:16 9.90431e-05
32 *238:14 *4127:D_N 0.000215341
33 *238:14 *353:16 2.14658e-05
34 *239:12 *4308:A 5.80706e-06
35 *264:41 *353:10 5.33433e-05
36 *264:41 *353:29 0
*RES
1 *4605:X *353:10 17.2107 
2 *353:10 *353:12 4.5 
3 *353:12 *353:16 1.78571 
4 *353:16 *4311:B 11.0679 
5 *353:16 *353:29 15.8036 
6 *353:29 *4308:A 26.8357 
7 *353:29 *4309:A1 9.3 
8 *353:12 *4310:A1 9.3 
9 *353:10 *4127:D_N 22.2643 
*END

*D_NET *354 0.000930335
*CONN
*I *4309:B1 I *D sky130_fd_sc_hd__o211a_1
*I *4606:X O *D sky130_fd_sc_hd__dlygate4sd3_1
*CAP
1 *4309:B1 0.000303351
2 *4606:X 0.000303351
3 *4309:B1 *4304:B1 0
4 *4309:B1 *4307:C 0
5 *4309:A2 *4309:B1 0.000177941
6 *4605:A *4309:B1 0.000100823
7 *264:41 *4309:B1 2.34204e-05
8 *353:29 *4309:B1 2.14474e-05
*RES
1 *4606:X *4309:B1 33.0286 
*END

*D_NET *355 0.000227346
*CONN
*I *4407:D I *D sky130_fd_sc_hd__dfxtp_1
*I *4439:X O *D sky130_fd_sc_hd__dlygate4sd3_1
*CAP
1 *4407:D 9.2393e-05
2 *4439:X 9.2393e-05
3 *4308:A *4407:D 0
4 *4606:A *4407:D 2.61255e-05
5 *239:20 *4407:D 1.64343e-05
*RES
1 *4439:X *4407:D 29.1045 
*END

*D_NET *356 0.00625384
*CONN
*I *4099:A I *D sky130_fd_sc_hd__inv_2
*I *4143:A1 I *D sky130_fd_sc_hd__a31o_1
*I *4243:D I *D sky130_fd_sc_hd__or4_1
*I *4136:B I *D sky130_fd_sc_hd__or4_4
*I *4134:B I *D sky130_fd_sc_hd__or3_1
*I *4242:A3 I *D sky130_fd_sc_hd__o31a_1
*I *4245:A3 I *D sky130_fd_sc_hd__o311a_2
*I *4145:B2 I *D sky130_fd_sc_hd__a22o_1
*I *4440:X O *D sky130_fd_sc_hd__dlygate4sd3_1
*CAP
1 *4099:A 0.000122165
2 *4143:A1 0
3 *4243:D 2.17614e-05
4 *4136:B 0
5 *4134:B 0.000156474
6 *4242:A3 0.000285668
7 *4245:A3 9.47778e-05
8 *4145:B2 0
9 *4440:X 9.26863e-05
10 *356:78 0.000255641
11 *356:65 0.00023712
12 *356:49 0.000193393
13 *356:27 0.000523083
14 *356:18 0.00048461
15 *356:12 0.000730222
16 *356:8 0.0005259
17 *4099:A *530:DIODE 5.71472e-05
18 *4099:A *4141:A 8.03159e-05
19 *4099:A *366:12 1.33143e-05
20 *4099:A *373:272 4.27338e-05
21 *4099:A *373:274 6.58013e-05
22 *4099:A *488:56 2.44318e-05
23 *4099:A *488:66 2.89114e-05
24 *4134:B *4136:A 2.9212e-05
25 *4242:A3 *4245:A2 0.000172528
26 *4242:A3 *460:54 0
27 *4242:A3 *488:85 1.31516e-05
28 *4243:D *488:66 9.71197e-05
29 *4245:A3 *4245:A2 0.000219818
30 *356:18 *532:DIODE 9.71197e-05
31 *356:18 *4122:A1 0
32 *356:27 *4245:A2 2.94103e-05
33 *356:27 *460:54 0
34 *356:49 *4136:A 5.71472e-05
35 *4136:C *4134:B 0.000115045
36 *4143:A3 *356:12 1.76135e-05
37 *4143:A3 *356:65 5.84171e-05
38 *4143:A3 *356:78 9.22701e-05
39 *4143:B1 *4099:A 0.000111924
40 *4143:B1 *356:78 3.34295e-05
41 *4145:A2 *356:18 0.000157409
42 *4145:A2 *356:49 2.14757e-05
43 *4152:B1 *356:27 0
44 *4244:B *4242:A3 7.39203e-06
45 *4245:C1 *4242:A3 0
46 *4245:C1 *356:27 0
47 *4375:CLK *4243:D 9.71197e-05
48 *4380:CLK *356:18 0.000351162
49 *4380:D *356:27 0
50 *4595:A *4245:A3 0.000210722
51 *122:32 *356:12 0
52 *122:45 *356:8 0.000142856
53 *134:14 *356:12 5.10822e-05
54 *140:51 *356:18 2.84494e-05
55 *140:51 *356:27 5.80706e-06
56 *151:10 *356:12 0
57 *151:10 *356:65 0
58 *151:10 *356:78 0
*RES
1 *4440:X *356:8 15.1571 
2 *356:8 *356:12 10.6964 
3 *356:12 *356:18 11.5179 
4 *356:18 *4145:B2 13.8 
5 *356:18 *356:27 2.55357 
6 *356:27 *4245:A3 17.6214 
7 *356:27 *4242:A3 19.0143 
8 *356:12 *356:49 0.946429 
9 *356:49 *4134:B 11.4964 
10 *356:49 *4136:B 9.3 
11 *356:8 *356:65 1.64286 
12 *356:65 *4243:D 14.7464 
13 *356:65 *356:78 7.05357 
14 *356:78 *4143:A1 9.3 
15 *356:78 *4099:A 13.1393 
*END

*D_NET *357 0.00289577
*CONN
*I *4237:B1 I *D sky130_fd_sc_hd__a21o_1
*I *4238:A I *D sky130_fd_sc_hd__nand3_1
*I *4140:D_N I *D sky130_fd_sc_hd__or4b_1
*I *4441:X O *D sky130_fd_sc_hd__dlygate4sd3_1
*CAP
1 *4237:B1 4.89251e-05
2 *4238:A 0.000136228
3 *4140:D_N 0.00016833
4 *4441:X 0
5 *357:8 0.000410992
6 *357:4 0.00015536
7 *4140:D_N *4231:A1 4.88637e-05
8 *4238:A *4234:A 0.000315158
9 *4140:A *4140:D_N 0.000237275
10 *4140:A *357:8 2.16719e-05
11 *4140:C *4140:D_N 0.000227532
12 *4237:A1 *4237:B1 0.000140933
13 *4238:B *4238:A 0.000204825
14 *4238:C *4238:A 0.000131535
15 *4239:B *4237:B1 1.92905e-05
16 *4376:D *4140:D_N 9.69119e-06
17 *4376:D *357:8 6.72808e-05
18 *4448:A *4140:D_N 4.46186e-06
19 *192:16 *4238:A 0.000269428
20 *192:18 *4238:A 0.000137983
21 *270:10 *357:8 3.34366e-05
22 *270:16 *357:8 0.000106567
*RES
1 *4441:X *357:4 9.3 
2 *357:4 *357:8 7.05357 
3 *357:8 *4140:D_N 18.5321 
4 *357:8 *4238:A 20.2464 
5 *357:4 *4237:B1 10.6571 
*END

*D_NET *358 0.000499242
*CONN
*I *4239:C I *D sky130_fd_sc_hd__and3_1
*I *4442:X O *D sky130_fd_sc_hd__dlygate4sd3_1
*CAP
1 *4239:C 0.000222006
2 *4442:X 0.000222006
3 *4239:A *4239:C 5.52302e-05
4 *4442:A *4239:C 0
5 *4464:A *4239:C 0
*RES
1 *4442:X *4239:C 30.475 
*END

*D_NET *359 0.000248487
*CONN
*I *4377:D I *D sky130_fd_sc_hd__dfxtp_1
*I *4443:X O *D sky130_fd_sc_hd__dlygate4sd3_1
*CAP
1 *4377:D 0.000124243
2 *4443:X 0.000124243
3 *4442:A *4377:D 0
*RES
1 *4443:X *4377:D 29.7116 
*END

*D_NET *360 0.00697359
*CONN
*I *4285:A1 I *D sky130_fd_sc_hd__a2111o_1
*I *4126:B I *D sky130_fd_sc_hd__and3_1
*I *4102:A I *D sky130_fd_sc_hd__inv_2
*I *4169:A I *D sky130_fd_sc_hd__nand2_2
*I *4191:A1 I *D sky130_fd_sc_hd__a31o_1
*I *4287:A I *D sky130_fd_sc_hd__or2_1
*I *4299:A2 I *D sky130_fd_sc_hd__o31a_2
*I *4444:X O *D sky130_fd_sc_hd__dlygate4sd3_1
*CAP
1 *4285:A1 0
2 *4126:B 6.281e-05
3 *4102:A 7.71791e-05
4 *4169:A 0.000166245
5 *4191:A1 0
6 *4287:A 0
7 *4299:A2 0.000214585
8 *4444:X 0
9 *360:75 0.000311034
10 *360:62 0.000582503
11 *360:20 0.000879897
12 *360:14 0.000711079
13 *360:10 0.000628302
14 *360:4 0.000673391
15 *4126:B *4285:A2 7.73758e-05
16 *4126:B *4285:C1 4.15914e-05
17 *4299:A2 *4127:C 7.43578e-06
18 *4299:A2 *4299:A3 2.54632e-05
19 *4299:A2 *4299:B1 6.20656e-05
20 *4299:A2 *367:22 0
21 *360:20 *4299:A1 0
22 *360:20 *4341:D 0
23 *360:75 *514:16 1.08032e-05
24 *4148:B *360:10 0.000318107
25 *4148:B *360:62 0.000135756
26 *4149:A *4169:A 0.000195349
27 *4189:B1 *360:20 4.59075e-05
28 *4191:A2 *360:20 5.71472e-05
29 *4191:A3 *4169:A 4.25716e-05
30 *4191:B1 *360:20 0.000142856
31 *4351:CLK *360:75 0
32 *4444:A *360:20 0
33 *4478:A *360:20 0.000169572
34 *100:117 *360:75 0.000113038
35 *100:123 *4126:B 5.30725e-05
36 *100:123 *360:75 1.02504e-05
37 *100:174 *4102:A 9.71197e-05
38 *100:174 *360:75 0.000238521
39 *100:193 *4102:A 5.52302e-05
40 *130:29 *4169:A 3.34295e-05
41 *130:29 *360:10 0.000154633
42 *130:29 *360:20 0
43 *133:51 *4169:A 0.000186669
44 *142:10 *4102:A 9.16173e-05
45 *142:10 *360:62 0.000227532
46 *143:14 *4169:A 1.56e-05
47 *143:74 *4169:A 1.19402e-05
48 *265:57 *360:75 0
49 *335:18 *360:10 4.59075e-05
*RES
1 *4444:X *360:4 9.3 
2 *360:4 *360:10 11.1964 
3 *360:10 *360:14 5.03571 
4 *360:14 *360:20 17.5179 
5 *360:20 *4299:A2 16.9429 
6 *360:20 *4287:A 13.8 
7 *360:14 *4191:A1 9.3 
8 *360:10 *4169:A 18.425 
9 *360:4 *360:62 4.78571 
10 *360:62 *4102:A 11.4964 
11 *360:62 *360:75 9.78571 
12 *360:75 *4126:B 15.7464 
13 *360:75 *4285:A1 13.8 
*END

*D_NET *361 0.000523322
*CONN
*I *4357:D I *D sky130_fd_sc_hd__dfxtp_1
*I *4445:X O *D sky130_fd_sc_hd__dlygate4sd3_1
*CAP
1 *4357:D 0.000146521
2 *4445:X 0.000146521
3 *4191:A3 *4357:D 5.06983e-05
4 *4284:B1 *4357:D 2.97756e-05
5 *133:42 *4357:D 0.00014493
6 *143:74 *4357:D 0
7 *168:6 *4357:D 4.87669e-06
8 *264:117 *4357:D 0
*RES
1 *4445:X *4357:D 30.9438 
*END

*D_NET *362 0.0262
*CONN
*I *4160:C1 I *D sky130_fd_sc_hd__o211a_1
*I *4175:C1 I *D sky130_fd_sc_hd__o211a_1
*I *4181:C1 I *D sky130_fd_sc_hd__o211a_1
*I *4158:C1 I *D sky130_fd_sc_hd__o211a_1
*I *4195:B1 I *D sky130_fd_sc_hd__o211a_1
*I *4193:B1 I *D sky130_fd_sc_hd__o211a_1
*I *4197:B1 I *D sky130_fd_sc_hd__o211a_1
*I *4199:B1 I *D sky130_fd_sc_hd__o211a_1
*I *4178:C1 I *D sky130_fd_sc_hd__o211a_1
*I *4184:C1 I *D sky130_fd_sc_hd__o211a_1
*I *4187:C1 I *D sky130_fd_sc_hd__o211a_1
*I *4172:C1 I *D sky130_fd_sc_hd__o211a_1
*I *4126:A I *D sky130_fd_sc_hd__and3_1
*I *4132:A1 I *D sky130_fd_sc_hd__a31o_1
*I *4147:A1 I *D sky130_fd_sc_hd__a31o_1
*I *4156:C1 I *D sky130_fd_sc_hd__o211a_1
*I *4435:X O *D sky130_fd_sc_hd__buf_4
*CAP
1 *4160:C1 0.000243884
2 *4175:C1 0
3 *4181:C1 4.19061e-05
4 *4158:C1 0.000912317
5 *4195:B1 0.000306904
6 *4193:B1 7.61377e-05
7 *4197:B1 0
8 *4199:B1 4.94544e-05
9 *4178:C1 0.000238751
10 *4184:C1 0.000279683
11 *4187:C1 3.38602e-05
12 *4172:C1 8.53133e-05
13 *4126:A 0
14 *4132:A1 0.000222208
15 *4147:A1 2.22847e-05
16 *4156:C1 0.000360976
17 *4435:X 8.08094e-05
18 *362:192 0.000392193
19 *362:185 0.000232254
20 *362:170 0.000532429
21 *362:164 0.00131688
22 *362:145 0.000627082
23 *362:137 0.000497298
24 *362:117 0.000847944
25 *362:107 0.00085706
26 *362:94 0.000707143
27 *362:70 0.00059408
28 *362:47 0.00122713
29 *362:37 0.0013439
30 *362:35 0.00066372
31 *362:10 0.00106963
32 *362:6 0.000369627
33 *4132:A1 *4146:C 0.000104658
34 *4156:C1 *572:DIODE 0.000265479
35 *4156:C1 *4339:D 0.000145625
36 *4156:C1 *4567:A 0.000247288
37 *4158:C1 *4158:A1 5.33005e-05
38 *4158:C1 *4158:B1 0.000128154
39 *4158:C1 *4530:A 6.8646e-06
40 *4158:C1 *495:12 0.000430646
41 *4160:C1 *4160:B1 1.58163e-05
42 *4160:C1 *4567:A 0.000408699
43 *4172:C1 *4172:A1 6.05161e-06
44 *4172:C1 *4351:D 0.000139913
45 *4178:C1 *551:DIODE 9.90431e-05
46 *4178:C1 *4178:A1 2.4806e-05
47 *4181:C1 *4181:B1 5.1588e-05
48 *4184:C1 *4187:A1 0
49 *4184:C1 *4356:D 5.33882e-05
50 *4187:C1 *373:60 9.77274e-05
51 *4187:C1 *373:64 3.18676e-05
52 *4193:B1 *4197:A1 0.000137427
53 *4195:B1 *4195:A1 0.000195677
54 *4195:B1 *4197:A1 4.72917e-05
55 *4199:B1 *460:179 5.71472e-05
56 *362:6 *4160:B1 3.69047e-06
57 *362:6 *373:27 5.52238e-05
58 *362:10 *572:DIODE 6.07232e-05
59 *362:10 *4567:A 0.000126439
60 *362:35 *4175:A1 2.12005e-05
61 *362:35 *4344:D 2.28303e-05
62 *362:35 *4583:A 9.91496e-05
63 *362:47 *4147:A3 9.8591e-05
64 *362:47 *4156:A1 0
65 *362:47 *367:6 1.59373e-05
66 *362:47 *367:14 2.07878e-05
67 *362:70 *4146:C 7.32272e-05
68 *362:70 *367:14 1.82328e-05
69 *362:94 *4172:A1 7.03393e-05
70 *362:94 *4351:D 0.000175251
71 *362:94 *373:48 9.90433e-05
72 *362:107 *373:48 0.000193118
73 *362:107 *514:16 0
74 *362:117 *373:60 0.000594935
75 *362:117 *514:16 4.70078e-05
76 *362:137 *4181:B1 7.83587e-05
77 *362:137 *373:48 0.000126446
78 *362:137 *373:343 0.000234881
79 *362:145 *551:DIODE 2.97829e-05
80 *362:145 *4160:A1 2.6726e-05
81 *362:145 *4172:A1 3.75448e-05
82 *362:145 *491:12 4.2802e-05
83 *362:164 *4172:A1 2.56694e-05
84 *362:164 *491:12 0.000149662
85 *362:170 *4178:A1 0
86 *362:170 *491:12 0.000334514
87 *362:185 *460:192 0
88 *362:192 *4197:A1 5.7661e-06
89 uart_txd *4156:C1 0
90 *571:DIODE *362:170 0
91 *4132:A3 *4132:A1 5.52238e-05
92 *4132:B1 *4132:A1 5.33334e-05
93 *4138:A *362:47 0
94 *4155:B *4156:C1 3.0987e-05
95 *4155:B *4160:C1 0.000107503
96 *4170:A0 *362:47 4.46186e-06
97 *4170:A0 *362:94 6.37408e-06
98 *4170:S *362:94 0.00015134
99 *4173:S *362:94 0.000225982
100 *4175:A2 *362:35 3.18747e-05
101 *4175:A2 *362:107 5.83304e-05
102 *4175:B1 *362:35 0.000159859
103 *4177:A *362:145 4.46186e-06
104 *4178:A2 *4181:C1 3.25745e-05
105 *4178:A2 *362:137 1.02504e-05
106 *4179:A0 *362:137 7.83587e-05
107 *4181:A2 *4181:C1 5.33005e-05
108 *4181:A2 *362:145 9.41642e-05
109 *4183:B *362:117 5.71472e-05
110 *4184:A2 *4184:C1 1.50181e-05
111 *4184:B1 *4184:C1 0.00029324
112 *4187:B1 *4184:C1 0
113 *4193:A2 *4193:B1 0.000178586
114 *4195:A2 *4195:B1 7.0603e-05
115 *4195:C1 *4195:B1 2.05938e-05
116 *4197:A2 *4195:B1 3.4323e-06
117 *4197:A2 *362:185 1.02504e-05
118 *4197:C1 *362:185 6.42338e-05
119 *4203:C1 *4184:C1 0
120 *4337:B1 *362:47 0
121 *4337:B1 *362:70 9.60875e-05
122 *4337:B2 *362:47 0
123 *4344:CLK *362:35 4.58194e-05
124 *4345:CLK *4158:C1 0
125 *4352:D *362:35 0.000136951
126 *4358:CLK *4195:B1 0.000126439
127 *4427:A *4158:C1 5.71472e-05
128 *4447:A *362:94 0.00030926
129 *4458:A *362:47 2.30245e-05
130 *4480:A *362:47 2.68406e-05
131 *4483:A *362:47 0.000233305
132 *4571:A *362:117 0.000137983
133 *4573:A *4178:C1 0.000126433
134 *4579:A *4184:C1 7.58664e-05
135 *4584:A *4156:C1 6.43988e-05
136 *4584:A *362:117 0.000119135
137 *4602:A *362:35 9.80173e-05
138 *97:77 *4181:C1 5.33005e-05
139 *97:77 *362:170 1.69115e-05
140 *97:88 *362:170 4.1331e-06
141 *97:88 *362:185 9.67796e-05
142 *97:103 *4193:B1 0.000130419
143 *97:103 *4195:B1 5.52238e-05
144 *100:127 *362:70 2.39923e-05
145 *100:263 *4158:C1 0.000154923
146 *133:93 *4172:C1 5.74499e-06
147 *134:93 *4158:C1 3.92757e-05
148 *134:207 *4158:C1 5.39648e-05
149 *141:10 *4132:A1 0
150 *143:14 *4172:C1 9.19184e-05
151 *143:31 *362:107 0.000215583
152 *143:31 *362:137 0.000659932
153 *143:74 *4184:C1 8.11028e-06
154 *143:80 *4187:C1 0.000230475
155 *143:80 *362:117 7.03295e-05
156 *225:10 *362:47 0.000101545
157 *259:64 *4178:C1 8.2018e-05
158 *259:64 *362:164 0
159 *259:64 *362:170 0
160 *265:12 *362:70 7.87356e-05
161 *267:6 *4158:C1 0.000130164
162 *267:8 *4158:C1 0.00033784
163 *267:14 *4181:C1 7.05143e-06
164 *267:65 *4178:C1 0
165 *301:8 *362:185 0
166 *301:27 *362:170 0
167 *305:12 *4158:C1 9.90367e-05
168 *305:12 *362:164 2.56601e-05
169 *339:18 *4160:C1 9.54798e-06
*RES
1 *4435:X *362:6 10.6571 
2 *362:6 *362:10 6.14286 
3 *362:10 *4156:C1 23.0143 
4 *362:10 *362:35 15.7679 
5 *362:35 *362:37 4.5 
6 *362:37 *362:47 19.4107 
7 *362:47 *4147:A1 9.72857 
8 *362:47 *362:70 14.9643 
9 *362:70 *4132:A1 13.5857 
10 *362:70 *4126:A 9.3 
11 *362:37 *362:94 15.0893 
12 *362:94 *4172:C1 11.8 
13 *362:94 *362:107 7.96429 
14 *362:107 *362:117 16.8929 
15 *362:117 *4187:C1 11.4786 
16 *362:117 *4184:C1 26.0143 
17 *362:107 *362:137 8.625 
18 *362:137 *362:145 12.8214 
19 *362:145 *4178:C1 26.9607 
20 *362:145 *362:164 3.76786 
21 *362:164 *362:170 5.94643 
22 *362:170 *4199:B1 14.8714 
23 *362:170 *362:185 9.48214 
24 *362:185 *4197:B1 9.3 
25 *362:185 *362:192 0.428571 
26 *362:192 *4193:B1 12.3179 
27 *362:192 *4195:B1 25.9071 
28 *362:164 *4158:C1 39.175 
29 *362:137 *4181:C1 15.0679 
30 *362:35 *4175:C1 9.3 
31 *362:6 *4160:C1 24.5321 
*END

*D_NET *363 0.0033681
*CONN
*I *4172:A1 I *D sky130_fd_sc_hd__o211a_1
*I *4446:X O *D sky130_fd_sc_hd__dlygate4sd3_1
*CAP
1 *4172:A1 0.000493017
2 *4446:X 0.000493017
3 *4172:A1 *4354:D 0.000153054
4 *4172:A1 *373:48 0.000312209
5 *4172:C1 *4172:A1 6.05161e-06
6 *4177:A *4172:A1 0.000244751
7 *4447:A *4172:A1 0.000226507
8 *133:93 *4172:A1 2.14757e-05
9 *142:10 *4172:A1 7.50601e-05
10 *142:28 *4172:A1 0.000145584
11 *259:64 *4172:A1 0.00106382
12 *362:94 *4172:A1 7.03393e-05
13 *362:145 *4172:A1 3.75448e-05
14 *362:164 *4172:A1 2.56694e-05
*RES
1 *4446:X *4172:A1 44.7964 
*END

*D_NET *364 0.00109131
*CONN
*I *4351:D I *D sky130_fd_sc_hd__dfxtp_1
*I *4447:X O *D sky130_fd_sc_hd__dlygate4sd3_1
*CAP
1 *4351:D 0.000276219
2 *4447:X 0.000276219
3 *4351:D *4583:A 1.76204e-05
4 *4351:D *513:16 9.47456e-05
5 *4172:C1 *4351:D 0.000139913
6 *4175:A2 *4351:D 8.5662e-05
7 *4351:CLK *4351:D 2.56845e-05
8 *362:94 *4351:D 0.000175251
*RES
1 *4447:X *4351:D 33.0152 
*END

*D_NET *365 0.00231428
*CONN
*I *4232:A I *D sky130_fd_sc_hd__and4_1
*I *4140:B I *D sky130_fd_sc_hd__or4b_1
*I *4231:B1 I *D sky130_fd_sc_hd__a31o_1
*I *4448:X O *D sky130_fd_sc_hd__dlygate4sd3_1
*CAP
1 *4232:A 0.000268685
2 *4140:B 0
3 *4231:B1 0.000390634
4 *4448:X 0
5 *365:6 0.000584154
6 *365:4 0.000462205
7 *4231:B1 *4231:A1 0.000130326
8 *4231:B1 *366:12 3.92854e-05
9 *4231:B1 *488:66 0
10 *4140:A *4231:B1 4.0342e-06
11 *4140:A *365:6 2.07382e-05
12 *4140:C *4232:A 0.000186379
13 *4140:C *365:6 9.76689e-05
14 *4450:A *4231:B1 5.71472e-05
15 *4559:A *4231:B1 7.30247e-05
16 *151:10 *4231:B1 0
17 *188:32 *4231:B1 0
*RES
1 *4448:X *365:4 9.3 
2 *365:4 *365:6 2.58929 
3 *365:6 *4231:B1 24.8714 
4 *365:6 *4140:B 9.3 
5 *365:4 *4232:A 13.1393 
*END

*D_NET *366 0.00163499
*CONN
*I *4142:C I *D sky130_fd_sc_hd__and3_1
*I *4141:A I *D sky130_fd_sc_hd__inv_2
*I *4450:X O *D sky130_fd_sc_hd__dlygate4sd3_1
*CAP
1 *4142:C 0
2 *4141:A 0.000299785
3 *4450:X 0.000261635
4 *366:12 0.00056142
5 *4141:A *373:274 1.55885e-05
6 *4141:A *373:276 6.97494e-05
7 *366:12 *488:56 0.000232399
8 *366:12 *488:66 5.52302e-05
9 *4099:A *4141:A 8.03159e-05
10 *4099:A *366:12 1.33143e-05
11 *4143:B1 *4141:A 6.26774e-06
12 *4231:B1 *366:12 3.92854e-05
13 *151:10 *366:12 0
*RES
1 *4450:X *366:12 22.4071 
2 *366:12 *4141:A 14.3179 
3 *366:12 *4142:C 9.3 
*END

*D_NET *367 0.00592581
*CONN
*I *4139:B2 I *D sky130_fd_sc_hd__a221o_1
*I *4147:A2 I *D sky130_fd_sc_hd__a31o_1
*I *4285:A2 I *D sky130_fd_sc_hd__a2111o_1
*I *4287:B I *D sky130_fd_sc_hd__or2_1
*I *4299:A3 I *D sky130_fd_sc_hd__o31a_2
*I *4451:X O *D sky130_fd_sc_hd__dlygate4sd3_1
*CAP
1 *4139:B2 9.17724e-05
2 *4147:A2 2.22847e-05
3 *4285:A2 0.00024863
4 *4287:B 0
5 *4299:A3 4.56574e-05
6 *4451:X 0
7 *367:22 0.000836501
8 *367:14 0.00142233
9 *367:6 0.000718648
10 *367:4 0.00040528
11 *4285:A2 *4101:A 0
12 *4285:A2 *4300:B 0
13 *4285:A2 *394:43 0
14 *4285:A2 *423:10 5.33882e-05
15 *4299:A3 *4299:B1 9.28838e-05
16 *4299:A3 *427:12 0.00014751
17 *367:6 *4147:A3 0.000184522
18 *367:14 *423:10 4.46186e-06
19 *367:22 *4300:A 8.07313e-05
20 *367:22 *427:12 0.000380956
21 *528:DIODE *4139:B2 3.03567e-05
22 *4126:B *4285:A2 7.73758e-05
23 *4132:A3 *4285:A2 4.66203e-05
24 *4132:A3 *367:14 4.25427e-05
25 *4139:B1 *4139:B2 0.000176234
26 *4297:B *4139:B2 5.83233e-05
27 *4298:B *4139:B2 5.52238e-05
28 *4298:B *367:6 9.60939e-05
29 *4299:A2 *4299:A3 2.54632e-05
30 *4299:A2 *367:22 0
31 *4337:B1 *367:14 0.000151619
32 *4337:B1 *367:22 8.29063e-05
33 *4507:A *367:14 9.60875e-05
34 *100:123 *4285:A2 0
35 *100:127 *4285:A2 0
36 *100:127 *367:14 0
37 *135:8 *4139:B2 6.07328e-05
38 *226:21 *367:14 0
39 *226:21 *367:22 1.74903e-05
40 *226:32 *367:22 0.000113769
41 *265:57 *4285:A2 4.46186e-06
42 *362:47 *367:6 1.59373e-05
43 *362:47 *367:14 2.07878e-05
44 *362:70 *367:14 1.82328e-05
*RES
1 *4451:X *367:4 9.3 
2 *367:4 *367:6 5.46429 
3 *367:6 *367:14 11.8393 
4 *367:14 *367:22 16.1607 
5 *367:22 *4299:A3 11.5143 
6 *367:22 *4287:B 9.3 
7 *367:14 *4285:A2 18.175 
8 *367:6 *4147:A2 9.72857 
9 *367:4 *4139:B2 21.3714 
*END

*D_NET *368 0.00111087
*CONN
*I *4339:D I *D sky130_fd_sc_hd__dfxtp_1
*I *4452:X O *D sky130_fd_sc_hd__dlygate4sd3_1
*CAP
1 *4339:D 0.00039676
2 *4452:X 0.00039676
3 *4339:D *4155:A 0.000125137
4 *4339:D *4612:A 4.21278e-05
5 uart_txd *4339:D 0
6 *4155:B *4339:D 4.46186e-06
7 *4156:C1 *4339:D 0.000145625
8 *4403:CLK *4339:D 0
9 *12:9 *4339:D 0
10 *265:130 *4339:D 0
*RES
1 *4452:X *4339:D 35.0152 
*END

*D_NET *369 0.000938405
*CONN
*I *4274:A I *D sky130_fd_sc_hd__and4_1
*I *4275:A1 I *D sky130_fd_sc_hd__o21ai_1
*I *4453:X O *D sky130_fd_sc_hd__dlygate4sd3_1
*CAP
1 *4274:A 0
2 *4275:A1 8.95943e-06
3 *4453:X 0.000390456
4 *369:12 0.000399415
5 *369:12 *4274:B 4.46186e-06
6 *4275:B1 *4275:A1 5.71472e-05
7 *4390:CLK *369:12 0
8 *4454:A *369:12 0
9 *262:8 *4275:A1 5.52238e-05
10 *275:6 *369:12 2.27416e-05
*RES
1 *4453:X *369:12 24.4786 
2 *369:12 *4275:A1 9.83571 
3 *369:12 *4274:A 9.3 
*END

*D_NET *370 6.37568e-05
*CONN
*I *4276:B I *D sky130_fd_sc_hd__nor2_1
*I *4454:X O *D sky130_fd_sc_hd__dlygate4sd3_1
*CAP
1 *4276:B 3.18784e-05
2 *4454:X 3.18784e-05
*RES
1 *4454:X *4276:B 19.1357 
*END

*D_NET *371 0.000808287
*CONN
*I *4390:D I *D sky130_fd_sc_hd__dfxtp_1
*I *4455:X O *D sky130_fd_sc_hd__dlygate4sd3_1
*CAP
1 *4390:D 0.000302726
2 *4455:X 0.000302726
3 *4454:A *4390:D 0.000202835
*RES
1 *4455:X *4390:D 33.0866 
*END

*D_NET *372 0.00152987
*CONN
*I *4297:A I *D sky130_fd_sc_hd__xor2_1
*I *4125:D_N I *D sky130_fd_sc_hd__or4b_1
*I *4137:A I *D sky130_fd_sc_hd__or4b_1
*I *4456:X O *D sky130_fd_sc_hd__dlygate4sd3_1
*CAP
1 *4297:A 0
2 *4125:D_N 5.2215e-05
3 *4137:A 9.79595e-06
4 *4456:X 4.7602e-05
5 *372:21 0.000212351
6 *372:6 0.000217534
7 *527:DIODE *372:6 0.00010096
8 *4137:B *372:6 9.16074e-05
9 *4294:B *4137:A 5.49489e-05
10 *4294:B *372:6 0.000112544
11 *4297:B *372:21 9.66578e-05
12 *100:135 *4125:D_N 0.000142157
13 *100:135 *372:21 0.000171913
14 *135:8 *372:21 0.000121248
15 *225:10 *372:21 0
16 *310:14 *4137:A 5.65955e-05
17 *310:14 *372:6 4.17433e-05
*RES
1 *4456:X *372:6 11.4786 
2 *372:6 *4137:A 9.83571 
3 *372:6 *372:21 13.0179 
4 *372:21 *4125:D_N 10.6571 
5 *372:21 *4297:A 9.3 
*END

*D_NET *373 0.0373399
*CONN
*I *551:DIODE I *D sky130_fd_sc_hd__diode_2
*I *4201:B1 I *D sky130_fd_sc_hd__o211a_1
*I *4203:B1 I *D sky130_fd_sc_hd__o211a_1
*I *552:DIODE I *D sky130_fd_sc_hd__diode_2
*I *573:DIODE I *D sky130_fd_sc_hd__diode_2
*I *559:DIODE I *D sky130_fd_sc_hd__diode_2
*I *523:DIODE I *D sky130_fd_sc_hd__diode_2
*I *556:DIODE I *D sky130_fd_sc_hd__diode_2
*I *530:DIODE I *D sky130_fd_sc_hd__diode_2
*I *4142:B I *D sky130_fd_sc_hd__and3_1
*I *4143:A2 I *D sky130_fd_sc_hd__a31o_1
*I *536:DIODE I *D sky130_fd_sc_hd__diode_2
*I *4152:A2 I *D sky130_fd_sc_hd__a32o_1
*I *529:DIODE I *D sky130_fd_sc_hd__diode_2
*I *4145:A1 I *D sky130_fd_sc_hd__a22o_1
*I *532:DIODE I *D sky130_fd_sc_hd__diode_2
*I *4241:C1 I *D sky130_fd_sc_hd__o211a_1
*I *553:DIODE I *D sky130_fd_sc_hd__diode_2
*I *554:DIODE I *D sky130_fd_sc_hd__diode_2
*I *4205:B1 I *D sky130_fd_sc_hd__o211a_1
*I *4207:B1 I *D sky130_fd_sc_hd__o211a_1
*I *4100:A I *D sky130_fd_sc_hd__inv_4
*I *4284:A2 I *D sky130_fd_sc_hd__a31o_1
*I *4190:B I *D sky130_fd_sc_hd__and3_1
*I *550:DIODE I *D sky130_fd_sc_hd__diode_2
*I *4189:C1 I *D sky130_fd_sc_hd__o211a_1
*I *549:DIODE I *D sky130_fd_sc_hd__diode_2
*I *535:DIODE I *D sky130_fd_sc_hd__diode_2
*I *4151:A1 I *D sky130_fd_sc_hd__a22o_1
*I *4435:A I *D sky130_fd_sc_hd__buf_4
*I *572:DIODE I *D sky130_fd_sc_hd__diode_2
*I *4436:X O *D sky130_fd_sc_hd__buf_4
*CAP
1 *551:DIODE 0.000102113
2 *4201:B1 1.99857e-05
3 *4203:B1 0.000117366
4 *552:DIODE 0
5 *573:DIODE 0
6 *559:DIODE 0
7 *523:DIODE 0
8 *556:DIODE 0
9 *530:DIODE 0.000106551
10 *4142:B 0
11 *4143:A2 3.82418e-05
12 *536:DIODE 0
13 *4152:A2 0.000303138
14 *529:DIODE 4.31754e-05
15 *4145:A1 5.37561e-05
16 *532:DIODE 7.03212e-05
17 *4241:C1 0
18 *553:DIODE 0.000124123
19 *554:DIODE 3.92359e-05
20 *4205:B1 0.000142224
21 *4207:B1 0
22 *4100:A 0.000195936
23 *4284:A2 0
24 *4190:B 0
25 *550:DIODE 0
26 *4189:C1 2.04425e-05
27 *549:DIODE 0.000288945
28 *535:DIODE 4.70928e-05
29 *4151:A1 0.000125398
30 *4435:A 0
31 *572:DIODE 0.000590101
32 *4436:X 0.000345288
33 *373:359 0.000498645
34 *373:355 0.000918655
35 *373:343 0.000997668
36 *373:276 0.000527012
37 *373:274 0.000445108
38 *373:272 0.000251561
39 *373:270 0.000263877
40 *373:257 0.000579574
41 *373:244 0.00055392
42 *373:231 0.000270299
43 *373:222 0.000314951
44 *373:216 0.00114294
45 *373:192 0.000194033
46 *373:179 0.00070433
47 *373:173 0.00151533
48 *373:164 0.000263796
49 *373:145 0.00134014
50 *373:132 0.00092509
51 *373:74 0.000328153
52 *373:72 0.000486256
53 *373:70 8.36349e-05
54 *373:68 5.23456e-05
55 *373:66 9.30275e-05
56 *373:64 0.000487536
57 *373:60 0.00122576
58 *373:52 0.000960925
59 *373:48 0.0013827
60 *373:27 0.00095118
61 *373:12 0.00100629
62 *530:DIODE *488:56 5.23057e-05
63 *572:DIODE *4156:B1 0.00010096
64 *572:DIODE *4344:D 0
65 *572:DIODE *4567:A 6.8646e-06
66 *4100:A *4206:A 1.21258e-05
67 *4100:A *4206:B 5.83304e-05
68 *4151:A1 *4151:B2 9.80173e-05
69 *4205:B1 *4205:A1 0.00011992
70 *373:12 *4160:B1 0.000153163
71 *373:12 *4346:D 5.56943e-05
72 *373:12 *4567:A 1.78447e-05
73 *373:60 *4180:B 0.000104974
74 *373:60 *514:16 9.90367e-05
75 *373:64 *4284:A1 5.52302e-05
76 *373:145 *4284:A1 1.65169e-05
77 *373:192 *4205:A1 1.78465e-05
78 *373:192 *4207:A1 0
79 *373:216 *4373:D 0.000190948
80 *373:216 *4378:D 0.000105246
81 *373:216 *460:109 0
82 *373:231 *4241:A2 0.000100823
83 *373:257 *4136:A 2.28598e-05
84 *373:257 *460:25 2.59795e-05
85 *373:257 *460:42 3.84385e-05
86 *373:257 *488:20 0.000175512
87 *373:270 *460:42 3.66402e-05
88 *373:270 *488:66 0.000171375
89 *373:343 *4160:A1 0.00020692
90 *373:343 *4181:B1 0.000120506
91 *373:343 *491:12 4.75762e-05
92 *373:355 *4184:A1 0.000105696
93 *373:359 *4200:A 5.52238e-05
94 uart_txd *572:DIODE 0.000153658
95 *555:DIODE *373:173 0
96 *567:DIODE *373:257 6.19181e-05
97 *4099:A *530:DIODE 5.71472e-05
98 *4099:A *373:272 4.27338e-05
99 *4099:A *373:274 6.58013e-05
100 *4124:B2 *373:222 0
101 *4141:A *373:274 1.55885e-05
102 *4141:A *373:276 6.97494e-05
103 *4143:B1 *373:274 0.00010096
104 *4145:A2 *4145:A1 5.33005e-05
105 *4145:A2 *373:257 0.000636581
106 *4151:A2 *535:DIODE 2.59355e-05
107 *4151:A2 *4151:A1 0.000105411
108 *4151:A2 *373:66 0.000191877
109 *4151:A2 *373:68 6.98302e-05
110 *4151:A2 *373:70 7.22594e-05
111 *4151:A2 *373:72 0.000117196
112 *4151:A2 *373:74 0.000574903
113 *4151:A2 *373:132 4.45694e-05
114 *4152:A3 *4152:A2 0.0001105
115 *4152:A3 *373:276 3.4879e-05
116 *4152:B1 *4152:A2 1.05613e-05
117 *4152:B1 *373:244 3.17148e-05
118 *4156:C1 *572:DIODE 0.000265479
119 *4167:A2 *4100:A 0
120 *4172:A1 *373:48 0.000312209
121 *4172:B1 *373:60 4.46186e-06
122 *4173:A1 *373:48 0.000141729
123 *4173:S *373:48 0.000225982
124 *4177:A *373:343 0
125 *4178:C1 *551:DIODE 9.90431e-05
126 *4179:A0 *373:343 7.83587e-05
127 *4181:A2 *551:DIODE 3.69047e-06
128 *4181:A2 *373:355 5.74499e-06
129 *4187:C1 *373:60 9.77274e-05
130 *4187:C1 *373:64 3.18676e-05
131 *4189:A1 *4189:C1 5.33005e-05
132 *4189:A1 *373:145 0
133 *4189:A2 *373:66 3.69865e-05
134 *4189:A2 *373:68 2.79092e-05
135 *4189:A2 *373:70 9.11365e-06
136 *4201:A2 *4201:B1 1.04232e-05
137 *4201:C1 *4201:B1 0
138 *4201:C1 *373:359 9.67724e-05
139 *4203:C1 *4203:B1 5.71472e-05
140 *4204:B *553:DIODE 0.000171289
141 *4204:B *554:DIODE 5.52238e-05
142 *4205:A2 *373:164 0.000248282
143 *4205:A2 *373:173 9.54798e-06
144 *4205:C1 *4205:B1 0
145 *4207:C1 *4100:A 0.000139907
146 *4207:C1 *373:164 0.000277866
147 *4227:B *373:270 3.92757e-05
148 *4284:B1 *373:64 9.92409e-05
149 *4352:CLK *373:48 5.33005e-05
150 *4352:D *373:48 1.64343e-05
151 *4365:D *373:164 0
152 *4373:CLK *373:216 0.000389561
153 *4375:CLK *529:DIODE 1.92905e-05
154 *4380:CLK *4145:A1 2.44318e-05
155 *4440:A *373:257 6.65398e-05
156 *4447:A *373:48 6.87146e-05
157 *4569:A *373:12 1.78447e-05
158 *4571:A *373:60 0.000127446
159 *4573:A *551:DIODE 2.27416e-05
160 *4584:A *373:60 0.000138873
161 *4599:A *373:48 5.52404e-05
162 *4600:A *373:48 0.000440655
163 *4603:A *373:74 0.000224585
164 *97:45 *4203:B1 2.53134e-05
165 *97:45 *373:173 1.10632e-05
166 *97:45 *373:216 0.000133811
167 *97:62 *4203:B1 8.19524e-05
168 *97:62 *373:355 1.32552e-05
169 *97:62 *373:359 9.06845e-05
170 *97:77 *373:343 1.02504e-05
171 *97:77 *373:355 0.000396658
172 *100:57 *4100:A 0.000197269
173 *100:66 *4100:A 5.52302e-05
174 *100:79 *4100:A 0.000144773
175 *100:79 *373:132 1.17968e-05
176 *100:79 *373:145 0.00064307
177 *100:90 *4189:C1 2.59355e-05
178 *100:90 *373:70 5.66157e-05
179 *100:90 *373:72 0.00012401
180 *100:90 *373:74 4.56437e-05
181 *100:106 *373:74 0.000154762
182 *100:291 *4100:A 2.31791e-05
183 *130:29 *549:DIODE 0.000122091
184 *131:14 *373:257 5.33005e-05
185 *133:42 *373:66 5.33786e-05
186 *133:42 *373:132 3.72174e-05
187 *133:42 *373:145 3.17067e-05
188 *133:93 *373:48 0.000393899
189 *134:64 *373:257 0.000394975
190 *134:107 *373:12 0.000248164
191 *134:111 *373:12 5.52302e-05
192 *140:38 *373:222 4.20435e-05
193 *140:51 *373:222 6.26653e-05
194 *140:51 *373:231 0.000101959
195 *140:51 *373:244 1.9643e-05
196 *142:28 *373:48 0
197 *142:28 *373:343 0
198 *143:31 *373:60 2.96805e-05
199 *143:80 *373:64 4.88546e-05
200 *144:6 *549:DIODE 1.56e-05
201 *144:10 *4151:A1 3.67452e-05
202 *144:10 *373:74 8.40827e-05
203 *144:18 *4151:A1 2.80412e-05
204 *144:122 *549:DIODE 9.60939e-05
205 *151:10 *373:270 4.038e-06
206 *153:21 *373:60 0
207 *153:30 *373:52 0.00022266
208 *180:10 *373:216 0.000142856
209 *259:160 *373:257 0.000193165
210 *263:18 *373:222 8.17978e-05
211 *263:18 *373:231 2.18827e-05
212 *267:14 *373:343 0
213 *267:14 *373:355 3.66495e-05
214 *290:29 *373:231 7.50601e-05
215 *290:29 *373:244 4.78056e-05
216 *339:18 *572:DIODE 0
217 *339:18 *373:12 0
218 *350:14 *4151:A1 0
219 *356:18 *532:DIODE 9.71197e-05
220 *362:6 *373:27 5.52238e-05
221 *362:10 *572:DIODE 6.07232e-05
222 *362:94 *373:48 9.90433e-05
223 *362:107 *373:48 0.000193118
224 *362:117 *373:60 0.000594935
225 *362:137 *373:48 0.000126446
226 *362:137 *373:343 0.000234881
227 *362:145 *551:DIODE 2.97829e-05
*RES
1 *4436:X *373:12 21.6036 
2 *373:12 *572:DIODE 25.2107 
3 *373:12 *373:27 5.85714 
4 *373:27 *4435:A 9.3 
5 *373:27 *373:48 25.8393 
6 *373:48 *373:52 6.67857 
7 *373:52 *373:60 22.6607 
8 *373:60 *373:64 9.55357 
9 *373:64 *373:66 2.55357 
10 *373:66 *373:68 1.03571 
11 *373:68 *373:70 1.03571 
12 *373:70 *373:72 1.64286 
13 *373:72 *373:74 7.41071 
14 *373:74 *4151:A1 16.7464 
15 *373:74 *535:DIODE 14.3357 
16 *373:72 *549:DIODE 17.6214 
17 *373:70 *4189:C1 14.3357 
18 *373:68 *550:DIODE 13.8 
19 *373:66 *4190:B 13.8 
20 *373:64 *373:132 1.03571 
21 *373:132 *4284:A2 13.8 
22 *373:132 *373:145 17.2679 
23 *373:145 *4100:A 23.7643 
24 *373:145 *373:164 11.3036 
25 *373:164 *4207:B1 13.8 
26 *373:164 *373:173 0.276786 
27 *373:173 *373:179 7.80387 
28 *373:179 *4205:B1 16.8089 
29 *373:179 *373:192 5.08036 
30 *373:192 *554:DIODE 9.83571 
31 *373:192 *553:DIODE 11.0679 
32 *373:173 *373:216 20.1161 
33 *373:216 *373:222 8.5 
34 *373:222 *4241:C1 13.8 
35 *373:222 *373:231 4.07143 
36 *373:231 *532:DIODE 14.7464 
37 *373:231 *373:244 5.83929 
38 *373:244 *4145:A1 10.2464 
39 *373:244 *373:257 17.8036 
40 *373:257 *529:DIODE 14.3357 
41 *373:257 *373:270 7.05357 
42 *373:270 *373:272 0.946429 
43 *373:272 *373:274 2.58929 
44 *373:274 *373:276 3 
45 *373:276 *4152:A2 13.9964 
46 *373:276 *536:DIODE 9.3 
47 *373:274 *4143:A2 10.0321 
48 *373:272 *4142:B 9.3 
49 *373:270 *530:DIODE 11.4964 
50 *373:216 *556:DIODE 9.3 
51 *373:145 *523:DIODE 9.3 
52 *373:60 *559:DIODE 9.3 
53 *373:52 *573:DIODE 9.3 
54 *373:48 *373:343 13.4821 
55 *373:343 *373:355 18.4107 
56 *373:355 *373:359 5.48214 
57 *373:359 *552:DIODE 9.3 
58 *373:359 *4203:B1 11.925 
59 *373:355 *4201:B1 9.72857 
60 *373:343 *551:DIODE 11.4786 
*END

*D_NET *374 0.000358791
*CONN
*I *4147:A3 I *D sky130_fd_sc_hd__a31o_1
*I *4457:X O *D sky130_fd_sc_hd__dlygate4sd3_1
*CAP
1 *4147:A3 3.78388e-05
2 *4457:X 3.78388e-05
3 *362:47 *4147:A3 9.8591e-05
4 *367:6 *4147:A3 0.000184522
*RES
1 *4457:X *4147:A3 20.3679 
*END

*D_NET *375 0.00102028
*CONN
*I *4342:D I *D sky130_fd_sc_hd__dfxtp_1
*I *4458:X O *D sky130_fd_sc_hd__dlygate4sd3_1
*CAP
1 *4342:D 0.000220907
2 *4458:X 0.000220907
3 *4342:D *4156:B1 8.63855e-05
4 *4342:D *4285:C1 0.000182598
5 *4337:B1 *4342:D 0.000151333
6 *265:10 *4342:D 3.17148e-05
7 *265:12 *4342:D 0.000126439
*RES
1 *4458:X *4342:D 32.1714 
*END

*D_NET *376 0.00117456
*CONN
*I *4266:A1 I *D sky130_fd_sc_hd__o21ai_1
*I *4265:A I *D sky130_fd_sc_hd__and4_1
*I *4459:X O *D sky130_fd_sc_hd__dlygate4sd3_1
*CAP
1 *4266:A1 0.000146339
2 *4265:A 0
3 *4459:X 8.44928e-05
4 *376:6 0.000230831
5 *4266:A1 *4265:B 0
6 *4107:D_N *4266:A1 0.00014285
7 *4107:D_N *376:6 5.71472e-05
8 *4265:D *376:6 0.00014285
9 *140:100 *4266:A1 0
10 *213:8 *376:6 3.18676e-05
11 *213:49 *376:6 6.87574e-05
12 *283:58 *4266:A1 0.000129515
13 *283:58 *376:6 0.000139907
*RES
1 *4459:X *376:6 12.3 
2 *376:6 *4265:A 9.3 
3 *376:6 *4266:A1 21.6036 
*END

*D_NET *377 0.000744692
*CONN
*I *4267:B I *D sky130_fd_sc_hd__nor2_1
*I *4461:X O *D sky130_fd_sc_hd__dlygate4sd3_1
*CAP
1 *4267:B 0.000280351
2 *4461:X 0.000280351
3 *4267:B *4264:B 7.85863e-05
4 *4263:B1 *4267:B 5.76092e-05
5 *4267:A *4267:B 0
6 *4462:A *4267:B 4.77935e-05
*RES
1 *4461:X *4267:B 33.0286 
*END

*D_NET *378 0.000500189
*CONN
*I *4387:D I *D sky130_fd_sc_hd__dfxtp_1
*I *4462:X O *D sky130_fd_sc_hd__dlygate4sd3_1
*CAP
1 *4387:D 0.000250094
2 *4462:X 0.000250094
3 *4267:A *4387:D 0
*RES
1 *4462:X *4387:D 31.7652 
*END

*D_NET *379 0.00468338
*CONN
*I *4232:B I *D sky130_fd_sc_hd__and4_1
*I *4231:A1 I *D sky130_fd_sc_hd__a31o_1
*I *4229:A I *D sky130_fd_sc_hd__nand2_1
*I *4228:A I *D sky130_fd_sc_hd__or2_1
*I *4463:X O *D sky130_fd_sc_hd__dlygate4sd3_1
*CAP
1 *4232:B 0
2 *4231:A1 0.000751327
3 *4229:A 4.88626e-05
4 *4228:A 0
5 *4463:X 0.000358755
6 *379:32 0.000947122
7 *379:12 4.88626e-05
8 *379:10 0.000554549
9 *379:10 *4232:C 5.41794e-05
10 *379:32 *4232:C 0.000338344
11 *4140:A *4231:A1 0.000357952
12 *4140:C *4231:A1 9.58508e-05
13 *4140:D_N *4231:A1 4.88637e-05
14 *4230:C *4229:A 0.000132661
15 *4231:B1 *4231:A1 0.000130326
16 *4448:A *379:32 0
17 *4559:A *4231:A1 0.000272371
18 *177:46 *4229:A 9.41642e-05
19 *177:46 *379:10 0.000127594
20 *177:59 *4229:A 5.36498e-05
21 *177:59 *379:10 0.000121355
22 *177:72 *379:10 0.000146591
*RES
1 *4463:X *379:10 19.175 
2 *379:10 *379:12 4.5 
3 *379:12 *4228:A 9.3 
4 *379:12 *4229:A 10.8804 
5 *379:10 *379:32 8.875 
6 *379:32 *4231:A1 29.5143 
7 *379:32 *4232:B 9.3 
*END

*D_NET *380 0.00205705
*CONN
*I *4235:A I *D sky130_fd_sc_hd__nand2_1
*I *4234:A I *D sky130_fd_sc_hd__or2_1
*I *4464:X O *D sky130_fd_sc_hd__dlygate4sd3_1
*CAP
1 *4235:A 0
2 *4234:A 0.00025039
3 *4464:X 0.000305048
4 *380:10 0.000555438
5 *4236:A *4234:A 2.28598e-05
6 *4236:C *4234:A 0.000193552
7 *4238:A *4234:A 0.000315158
8 *4238:B *4234:A 0.000230475
9 *4376:D *4234:A 5.3811e-05
10 *4376:D *380:10 0
11 *4464:A *380:10 0
12 *192:16 *4234:A 0.000117033
13 *192:57 *4234:A 9.15186e-06
14 *192:57 *380:10 4.1331e-06
15 *270:10 *380:10 0
*RES
1 *4464:X *380:10 18.7107 
2 *380:10 *4234:A 22.175 
3 *380:10 *4235:A 13.8 
*END

*D_NET *381 0.00212099
*CONN
*I *4256:A I *D sky130_fd_sc_hd__and4_1
*I *4257:A1 I *D sky130_fd_sc_hd__o21ai_1
*I *4465:X O *D sky130_fd_sc_hd__dlygate4sd3_1
*CAP
1 *4256:A 0.000441104
2 *4257:A1 0.00022941
3 *4465:X 0
4 *381:4 0.000670514
5 *4253:B *4256:A 9.25014e-06
6 *4257:A2 *4256:A 0.000290264
7 *4257:A2 *4257:A1 1.74352e-05
8 *4420:A *4257:A1 3.93247e-05
9 *4465:A *4256:A 7.50473e-05
10 *4466:A *4257:A1 0
11 *105:14 *4256:A 0.00028855
12 *105:14 *4257:A1 0
13 *282:6 *4256:A 9.01258e-06
14 *282:19 *4257:A1 5.10822e-05
*RES
1 *4465:X *381:4 9.3 
2 *381:4 *4257:A1 22.5321 
3 *381:4 *4256:A 26.3 
*END

*D_NET *382 0.000699726
*CONN
*I *4258:B I *D sky130_fd_sc_hd__nor2_1
*I *4466:X O *D sky130_fd_sc_hd__dlygate4sd3_1
*CAP
1 *4258:B 0.000163698
2 *4466:X 0.000163698
3 *4258:B *434:20 5.23057e-05
4 *4467:A *4258:B 0.000320024
*RES
1 *4466:X *4258:B 22.8321 
*END

*D_NET *383 0.000268084
*CONN
*I *4384:D I *D sky130_fd_sc_hd__dfxtp_1
*I *4467:X O *D sky130_fd_sc_hd__dlygate4sd3_1
*CAP
1 *4384:D 0.000106613
2 *4467:X 0.000106613
3 *4466:A *4384:D 0
4 *207:19 *4384:D 5.48581e-05
*RES
1 *4467:X *4384:D 29.7116 
*END

*D_NET *384 0.000736248
*CONN
*I *4282:B I *D sky130_fd_sc_hd__or2_1
*I *4437:X O *D sky130_fd_sc_hd__dlygate4sd3_1
*CAP
1 *4282:B 0.000140401
2 *4437:X 0.000140401
3 *4282:B *4329:B 3.34366e-05
4 *4329:A *4282:B 1.21258e-05
5 *4519:A *4282:B 1.15172e-05
6 *4546:A *4282:B 6.05161e-06
7 *100:20 *4282:B 9.80173e-05
8 *152:16 *4282:B 0.00022832
9 *252:12 *4282:B 2.26327e-05
10 *252:33 *4282:B 4.33438e-05
*RES
1 *4437:X *4282:B 31.3321 
*END

*D_NET *385 0.0024467
*CONN
*I *4254:A1 I *D sky130_fd_sc_hd__o21ai_1
*I *4256:B I *D sky130_fd_sc_hd__and4_1
*I *4253:A I *D sky130_fd_sc_hd__and3_1
*I *4468:X O *D sky130_fd_sc_hd__dlygate4sd3_1
*CAP
1 *4254:A1 0.000294188
2 *4256:B 0.000245224
3 *4253:A 0
4 *4468:X 0
5 *385:12 0.000567613
6 *385:4 0.000616578
7 *564:DIODE *4254:A1 0.000257906
8 *4253:C *4256:B 8.38038e-05
9 *4255:A *4256:B 2.89114e-05
10 *4256:C *4256:B 5.52238e-05
11 *4256:D *4256:B 3.8274e-05
12 *4383:CLK *385:12 0
13 *4469:A *4254:A1 5.52302e-05
14 *134:24 *385:12 0
15 *200:37 *4256:B 1.81933e-05
16 *259:116 *4254:A1 8.86512e-05
17 *281:10 *385:12 9.27685e-05
18 *281:23 *385:12 4.1331e-06
*RES
1 *4468:X *385:4 9.3 
2 *385:4 *385:12 14.7321 
3 *385:12 *4253:A 9.3 
4 *385:12 *4256:B 12.7286 
5 *385:4 *4254:A1 15.3179 
*END

*D_NET *386 0.000796997
*CONN
*I *4255:B I *D sky130_fd_sc_hd__nor2_1
*I *4469:X O *D sky130_fd_sc_hd__dlygate4sd3_1
*CAP
1 *4255:B 0.00020398
2 *4469:X 0.00020398
3 *564:DIODE *4255:B 9.90367e-05
4 *4252:A_N *4255:B 0
5 *4382:D *4255:B 9.32873e-05
6 *4470:A *4255:B 0.000128154
7 *200:37 *4255:B 6.85604e-05
*RES
1 *4469:X *4255:B 32.6179 
*END

*D_NET *387 0.00021566
*CONN
*I *4383:D I *D sky130_fd_sc_hd__dfxtp_1
*I *4470:X O *D sky130_fd_sc_hd__dlygate4sd3_1
*CAP
1 *4383:D 8.15358e-05
2 *4470:X 8.15358e-05
3 *4383:D *434:20 5.25887e-05
*RES
1 *4470:X *4383:D 20.2295 
*END

*D_NET *388 0.00332431
*CONN
*I *4305:A I *D sky130_fd_sc_hd__and2_1
*I *4127:A I *D sky130_fd_sc_hd__or4b_1
*I *4304:B1 I *D sky130_fd_sc_hd__a21o_1
*I *4472:X O *D sky130_fd_sc_hd__dlygate4sd3_1
*CAP
1 *4305:A 0.000122796
2 *4127:A 0
3 *4304:B1 0.00022787
4 *4472:X 0.000299436
5 *388:23 0.000294617
6 *388:8 0.000699126
7 *4304:B1 *4307:C 0.000106533
8 *4305:A *4127:C 5.52302e-05
9 *4305:A *4305:B 0.000170661
10 *388:23 *407:12 0.000100831
11 *4127:D_N *4305:A 0.0001399
12 *4127:D_N *388:23 9.60939e-05
13 *4309:B1 *4304:B1 0
14 *4309:C1 *4304:B1 0.000221156
15 *4474:A *4304:B1 0
16 *144:18 *4305:A 6.22481e-05
17 *144:24 *388:23 0.000236806
18 *144:26 *4304:B1 0.000256849
19 *144:26 *388:23 3.17148e-05
20 *144:60 *388:8 5.33005e-05
21 *234:26 *388:8 9.43319e-05
22 *238:14 *388:23 3.69772e-05
23 *264:41 *4304:B1 1.78353e-05
24 *353:10 *388:23 0
25 *353:29 *4304:B1 0
*RES
1 *4472:X *388:8 17.6214 
2 *388:8 *4304:B1 20.3 
3 *388:8 *388:23 8.91071 
4 *388:23 *4127:A 9.3 
5 *388:23 *4305:A 21.9071 
*END

*D_NET *389 0.00054464
*CONN
*I *4307:C I *D sky130_fd_sc_hd__and3b_1
*I *4473:X O *D sky130_fd_sc_hd__dlygate4sd3_1
*CAP
1 *4307:C 0.000142235
2 *4473:X 0.000142235
3 *4304:B1 *4307:C 0.000106533
4 *4309:B1 *4307:C 0
5 *264:41 *4307:C 0.000153637
*RES
1 *4473:X *4307:C 31.1 
*END

*D_NET *390 0.000372765
*CONN
*I *4406:D I *D sky130_fd_sc_hd__dfxtp_1
*I *4474:X O *D sky130_fd_sc_hd__dlygate4sd3_1
*CAP
1 *4406:D 0.000141375
2 *4474:X 0.000141375
3 *4406:D *4303:A1 1.64343e-05
4 *4304:A2 *4406:D 5.71472e-05
5 *4406:CLK *4406:D 1.64343e-05
6 *4474:A *4406:D 0
*RES
1 *4474:X *4406:D 29.6402 
*END

*D_NET *391 0.00150236
*CONN
*I *4271:A I *D sky130_fd_sc_hd__and3_1
*I *4272:A1 I *D sky130_fd_sc_hd__o21ai_1
*I *4274:B I *D sky130_fd_sc_hd__and4_1
*I *4475:X O *D sky130_fd_sc_hd__dlygate4sd3_1
*CAP
1 *4271:A 0
2 *4272:A1 4.24177e-05
3 *4274:B 0.000190003
4 *4475:X 6.3976e-05
5 *391:25 0.000163246
6 *391:6 0.000374807
7 *4272:A2 *4272:A1 5.71472e-05
8 *4274:C *4274:B 0.000150625
9 *4274:D *391:25 0.000198691
10 *4275:A2 *4274:B 0
11 *4476:A *391:25 0
12 *213:49 *391:25 3.34295e-05
13 *274:8 *4274:B 0.000136951
14 *274:8 *391:6 8.66063e-05
15 *275:10 *391:25 0
16 *369:12 *4274:B 4.46186e-06
*RES
1 *4475:X *391:6 10.2464 
2 *391:6 *4274:B 21.6036 
3 *391:6 *391:25 11.8571 
4 *391:25 *4272:A1 10.2643 
5 *391:25 *4271:A 9.3 
*END

*D_NET *392 8.6306e-05
*CONN
*I *4273:B I *D sky130_fd_sc_hd__nor2_1
*I *4476:X O *D sky130_fd_sc_hd__dlygate4sd3_1
*CAP
1 *4273:B 1.27684e-05
2 *4476:X 1.27684e-05
3 *4477:A *4273:B 2.89016e-05
4 *274:8 *4273:B 3.18676e-05
*RES
1 *4476:X *4273:B 19.1357 
*END

*D_NET *393 0.000733739
*CONN
*I *4389:D I *D sky130_fd_sc_hd__dfxtp_1
*I *4477:X O *D sky130_fd_sc_hd__dlygate4sd3_1
*CAP
1 *4389:D 0.000349016
2 *4477:X 0.000349016
3 *217:10 *4389:D 3.5707e-05
*RES
1 *4477:X *4389:D 33.2116 
*END

*D_NET *394 0.00557364
*CONN
*I *4132:A2 I *D sky130_fd_sc_hd__a31o_1
*I *4285:D1 I *D sky130_fd_sc_hd__a2111o_1
*I *4101:A I *D sky130_fd_sc_hd__inv_2
*I *4300:B I *D sky130_fd_sc_hd__or3_1
*I *4299:A1 I *D sky130_fd_sc_hd__o31a_2
*I *4151:B2 I *D sky130_fd_sc_hd__a22o_1
*I *4478:X O *D sky130_fd_sc_hd__dlygate4sd3_1
*CAP
1 *4132:A2 6.85155e-05
2 *4285:D1 0.000339431
3 *4101:A 0.000199248
4 *4300:B 0.000221117
5 *4299:A1 0.000120756
6 *4151:B2 0.000428137
7 *4478:X 0
8 *394:43 0.000598648
9 *394:32 0.000281086
10 *394:30 0.000613236
11 *394:6 0.000729676
12 *394:4 0.000725504
13 *4101:A *4340:D 4.7054e-05
14 *4101:A *513:16 0.000123288
15 *4285:D1 *4340:D 2.09961e-05
16 *4300:B *4289:A 5.89612e-05
17 *394:43 *4340:D 3.454e-05
18 *4132:A3 *4132:A2 2.27416e-05
19 *4132:A3 *4300:B 0
20 *4132:B1 *4132:A2 1.97695e-05
21 *4151:A1 *4151:B2 9.80173e-05
22 *4151:A2 *4151:B2 3.14078e-05
23 *4285:A2 *4101:A 0
24 *4285:A2 *4300:B 0
25 *4285:A2 *394:43 0
26 *4444:A *4101:A 0
27 *4478:A *394:30 9.90431e-05
28 *4479:A *4151:B2 1.72894e-05
29 *4508:A *394:30 0.000320024
30 *100:106 *4101:A 1.24368e-05
31 *100:115 *4101:A 1.98839e-05
32 *259:42 *4285:D1 2.11795e-05
33 *264:10 *4299:A1 0
34 *265:51 *4285:D1 0.000268403
35 *265:57 *4101:A 0
36 *265:57 *4285:D1 1.74352e-05
37 *335:12 *4101:A 1.58163e-05
38 *360:20 *4299:A1 0
*RES
1 *4478:X *394:4 9.3 
2 *394:4 *394:6 2.17857 
3 *394:6 *4151:B2 14.675 
4 *394:6 *4299:A1 19.9429 
5 *394:4 *394:30 9.67857 
6 *394:30 *394:32 4.5 
7 *394:32 *4300:B 17.5679 
8 *394:32 *394:43 1.1875 
9 *394:43 *4101:A 17.6482 
10 *394:43 *4285:D1 19.3982 
11 *394:30 *4132:A2 10.675 
*END

*D_NET *395 0.000459535
*CONN
*I *4393:D I *D sky130_fd_sc_hd__dfxtp_1
*I *4519:X O *D sky130_fd_sc_hd__dlygate4sd3_1
*CAP
1 *4393:D 0.000229767
2 *4519:X 0.000229767
3 *261:84 *4393:D 0
*RES
1 *4519:X *4393:D 31.158 
*END

*D_NET *396 0.000826311
*CONN
*I *4341:D I *D sky130_fd_sc_hd__dfxtp_1
*I *4479:X O *D sky130_fd_sc_hd__dlygate4sd3_1
*CAP
1 *4341:D 0.000372354
2 *4479:X 0.000372354
3 *100:106 *4341:D 8.16035e-05
4 *264:10 *4341:D 0
5 *264:82 *4341:D 0
6 *264:102 *4341:D 0
7 *360:20 *4341:D 0
*RES
1 *4479:X *4341:D 33.9973 
*END

*D_NET *397 0.000343434
*CONN
*I *4337:A1 I *D sky130_fd_sc_hd__o221a_1
*I *4480:X O *D sky130_fd_sc_hd__dlygate4sd3_1
*CAP
1 *4337:A1 3.33866e-05
2 *4480:X 3.33866e-05
3 *4337:B2 *4337:A1 0.00013833
4 *4480:A *4337:A1 0.00013833
*RES
1 *4480:X *4337:A1 19.9571 
*END

*D_NET *398 0.000456839
*CONN
*I *4338:C I *D sky130_fd_sc_hd__or3_1
*I *4481:X O *D sky130_fd_sc_hd__dlygate4sd3_1
*CAP
1 *4338:C 5.05983e-05
2 *4481:X 5.05983e-05
3 *4338:A *4338:C 0.000177821
4 *4338:B *4338:C 0.000177821
*RES
1 *4481:X *4338:C 20.3679 
*END

*D_NET *399 0.00377451
*CONN
*I *4418:D I *D sky130_fd_sc_hd__dfxtp_1
*I *4483:X O *D sky130_fd_sc_hd__dlygate4sd3_1
*CAP
1 *4418:D 0.00132311
2 *4483:X 0.00132311
3 *4418:D *4156:A1 5.86416e-05
4 uart_txd *4418:D 3.30526e-05
5 *538:DIODE *4418:D 5.52238e-05
6 *4139:B1 *4418:D 0.000175512
7 *4337:B2 *4418:D 8.75859e-05
8 *4337:C1 *4418:D 0.000136682
9 *4483:A *4418:D 9.66042e-05
10 *134:125 *4418:D 0.000175526
11 *265:10 *4418:D 7.29657e-05
12 *265:89 *4418:D 5.23893e-05
13 *335:55 *4418:D 9.09249e-05
14 *351:8 *4418:D 9.31893e-05
*RES
1 *4483:X *4418:D 48.9973 
*END

*D_NET *400 0.00223874
*CONN
*I *4280:A I *D sky130_fd_sc_hd__nand3_1
*I *4279:B1 I *D sky130_fd_sc_hd__a21o_1
*I *4484:X O *D sky130_fd_sc_hd__dlygate4sd3_1
*CAP
1 *4280:A 0.000334297
2 *4279:B1 0.00033549
3 *4484:X 0.000217689
4 *400:6 0.000887477
5 *4280:A *4392:D 0
6 *4281:B *4279:B1 7.83659e-05
7 *4281:B *4280:A 0
8 *4422:A *400:6 5.71472e-05
9 *4485:A *4280:A 0.000125724
10 *4598:A *4279:B1 4.25716e-05
11 *262:73 *4279:B1 0.000159982
12 *276:33 *4280:A 0
13 *277:14 *4280:A 0
*RES
1 *4484:X *400:6 11.8893 
2 *400:6 *4279:B1 23.3536 
3 *400:6 *4280:A 24.425 
*END

*D_NET *401 0.000213679
*CONN
*I *4281:C I *D sky130_fd_sc_hd__and3_1
*I *4485:X O *D sky130_fd_sc_hd__dlygate4sd3_1
*CAP
1 *4281:C 3.07021e-05
2 *4485:X 3.07021e-05
3 *4486:A *4281:C 2.27416e-05
4 *140:72 *4281:C 0.000129534
*RES
1 *4485:X *4281:C 19.8143 
*END

*D_NET *402 0.000789039
*CONN
*I *4392:D I *D sky130_fd_sc_hd__dfxtp_1
*I *4486:X O *D sky130_fd_sc_hd__dlygate4sd3_1
*CAP
1 *4392:D 0.00039452
2 *4486:X 0.00039452
3 *4280:A *4392:D 0
4 *262:73 *4392:D 0
5 *276:23 *4392:D 0
6 *277:8 *4392:D 0
7 *277:14 *4392:D 0
*RES
1 *4486:X *4392:D 33.9973 
*END

*D_NET *403 0.00344187
*CONN
*I *4333:A I *D sky130_fd_sc_hd__nand3_1
*I *4332:B1 I *D sky130_fd_sc_hd__a21o_1
*I *4130:D_N I *D sky130_fd_sc_hd__or4bb_1
*I *4487:X O *D sky130_fd_sc_hd__dlygate4sd3_1
*CAP
1 *4333:A 0.000318438
2 *4332:B1 0.000280456
3 *4130:D_N 0.000107361
4 *4487:X 4.96359e-05
5 *403:10 0.000434578
6 *403:8 0.000414836
7 *4130:D_N *4130:C_N 0.000220441
8 *4130:D_N *4416:D 9.25014e-06
9 *4332:B1 *4332:A1 0.000484262
10 *4333:A *4399:D 0
11 *4333:A *471:51 0
12 *403:10 *4130:C_N 0.000117196
13 *403:10 *4416:D 0.000103267
14 *4332:A2 *4332:B1 9.7049e-06
15 *4334:C *4130:D_N 7.80714e-06
16 *4334:C *4333:A 6.85604e-05
17 *4334:C *403:10 9.11365e-06
18 *4336:B1 *4130:D_N 8.5662e-05
19 *4336:B1 *4333:A 0.000117388
20 *4336:B1 *403:10 2.58997e-05
21 *4487:A *4332:B1 3.80414e-05
22 *4488:A *4332:B1 0.000232399
23 *4543:A *4333:A 9.24395e-05
24 *256:10 *4333:A 0.000118015
25 *259:92 *403:8 9.71197e-05
*RES
1 *4487:X *403:8 14.7464 
2 *403:8 *403:10 1.94643 
3 *403:10 *4130:D_N 16.9607 
4 *403:10 *4332:B1 20.5143 
5 *403:8 *4333:A 21.5143 
*END

*D_NET *404 0.000604975
*CONN
*I *4334:B I *D sky130_fd_sc_hd__and3_1
*I *4488:X O *D sky130_fd_sc_hd__dlygate4sd3_1
*CAP
1 *4334:B 0.000274872
2 *4488:X 0.000274872
3 *4334:B *4130:C_N 5.52302e-05
4 *4335:A1 *4334:B 0
5 *4335:A3 *4334:B 0
6 *4488:A *4334:B 0
7 *4489:A *4334:B 0
*RES
1 *4488:X *4334:B 31.6 
*END

*D_NET *405 0.000309669
*CONN
*I *4416:D I *D sky130_fd_sc_hd__dfxtp_1
*I *4489:X O *D sky130_fd_sc_hd__dlygate4sd3_1
*CAP
1 *4416:D 4.42771e-05
2 *4489:X 4.42771e-05
3 *4130:D_N *4416:D 9.25014e-06
4 *4336:B1 *4416:D 0.000103267
5 *4487:A *4416:D 5.33091e-06
6 *403:10 *4416:D 0.000103267
*RES
1 *4489:X *4416:D 29.1045 
*END

*D_NET *406 0.00135732
*CONN
*I *4164:A1 I *D sky130_fd_sc_hd__a21o_1
*I *4530:X O *D sky130_fd_sc_hd__dlygate4sd3_1
*CAP
1 *4164:A1 0.000457432
2 *4530:X 0.000457432
3 *4164:A1 *4162:A1 4.47762e-05
4 *4164:A1 *4348:D 7.6644e-05
5 *4164:A1 *4613:A 4.69963e-05
6 *4541:A *4164:A1 0.000274035
*RES
1 *4530:X *4164:A1 34.225 
*END

*D_NET *407 0.00337043
*CONN
*I *4310:B1 I *D sky130_fd_sc_hd__a31o_1
*I *4311:A I *D sky130_fd_sc_hd__and4_1
*I *4128:B I *D sky130_fd_sc_hd__nand2_1
*I *4490:X O *D sky130_fd_sc_hd__dlygate4sd3_1
*CAP
1 *4310:B1 4.66022e-05
2 *4311:A 0
3 *4128:B 0.000569211
4 *4490:X 5.9849e-05
5 *407:14 0.000665488
6 *407:12 0.000202728
7 *4128:B *4408:D 0.000101545
8 *4131:C *4128:B 0.000118592
9 *4306:B *4128:B 0.000232399
10 *4408:CLK *4128:B 0
11 *4491:A *4128:B 0.00010096
12 *4491:A *407:14 5.71472e-05
13 *144:60 *4310:B1 0.00010096
14 *144:60 *407:12 1.74352e-05
15 *144:68 *4128:B 0
16 *234:26 *4310:B1 5.7661e-06
17 *234:26 *407:12 5.52238e-05
18 *234:26 *407:14 0.000180777
19 *238:14 *4310:B1 5.71472e-05
20 *238:14 *407:12 5.01213e-05
21 *238:14 *407:14 0.00018077
22 *238:16 *4128:B 0.000188586
23 *238:16 *407:14 0.000131439
24 *242:14 *4128:B 0.000142856
25 *353:16 *4310:B1 3.99614e-06
26 *388:23 *407:12 0.000100831
*RES
1 *4490:X *407:12 20.175 
2 *407:12 *407:14 3.41071 
3 *407:14 *4128:B 29.6214 
4 *407:14 *4311:A 9.3 
5 *407:12 *4310:B1 10.9786 
*END

*D_NET *408 0.00136258
*CONN
*I *4312:C I *D sky130_fd_sc_hd__and3b_1
*I *4491:X O *D sky130_fd_sc_hd__dlygate4sd3_1
*CAP
1 *4312:C 0.000546527
2 *4491:X 0.000546527
3 *4334:A *4312:C 0.000269529
4 *4492:A *4312:C 0
*RES
1 *4491:X *4312:C 35.7071 
*END

*D_NET *409 0.000537064
*CONN
*I *4408:D I *D sky130_fd_sc_hd__dfxtp_1
*I *4492:X O *D sky130_fd_sc_hd__dlygate4sd3_1
*CAP
1 *4408:D 0.000216099
2 *4492:X 0.000216099
3 *4128:B *4408:D 0.000101545
4 *4491:A *4408:D 0
5 *144:68 *4408:D 3.32132e-06
*RES
1 *4492:X *4408:D 31.158 
*END

*D_NET *410 0.00224493
*CONN
*I *4265:B I *D sky130_fd_sc_hd__and4_1
*I *4262:A I *D sky130_fd_sc_hd__and3_1
*I *4263:A1 I *D sky130_fd_sc_hd__o21ai_1
*I *4494:X O *D sky130_fd_sc_hd__dlygate4sd3_1
*CAP
1 *4265:B 0.000264368
2 *4262:A 0
3 *4263:A1 7.25472e-05
4 *4494:X 0.000119419
5 *410:14 0.000267897
6 *410:8 0.000579136
7 *4107:D_N *4265:B 6.0038e-05
8 *4120:D_N *4265:B 3.13225e-05
9 *4265:D *4263:A1 1.55485e-05
10 *4266:A1 *4265:B 0
11 *4266:A2 *4265:B 0
12 *4266:A2 *410:8 0.000186669
13 *4266:A2 *410:14 5.91336e-05
14 *4495:A *4263:A1 0.00010047
15 *4496:A *410:14 2.59355e-05
16 *140:100 *4265:B 0
17 *140:108 *4265:B 0
18 *140:108 *410:14 0
19 *207:36 *4263:A1 6.42145e-05
20 *213:49 *4265:B 3.34366e-05
21 *283:23 *4263:A1 0
22 *283:23 *410:14 0.000101129
23 *283:34 *4265:B 0.000254413
24 *283:34 *410:14 9.25014e-06
*RES
1 *4494:X *410:8 15.5679 
2 *410:8 *410:14 8.01786 
3 *410:14 *4263:A1 20.2464 
4 *410:14 *4262:A 9.3 
5 *410:8 *4265:B 19.2107 
*END

*D_NET *411 0.000980038
*CONN
*I *4264:B I *D sky130_fd_sc_hd__nor2_1
*I *4495:X O *D sky130_fd_sc_hd__dlygate4sd3_1
*CAP
1 *4264:B 0.000297726
2 *4495:X 0.000297726
3 *4263:B1 *4264:B 0.00014699
4 *4267:B *4264:B 7.85863e-05
5 *4461:A *4264:B 9.80173e-05
6 *140:132 *4264:B 6.09919e-05
*RES
1 *4495:X *4264:B 32.5464 
*END

*D_NET *412 0.000255419
*CONN
*I *4386:D I *D sky130_fd_sc_hd__dfxtp_1
*I *4496:X O *D sky130_fd_sc_hd__dlygate4sd3_1
*CAP
1 *4386:D 9.40949e-05
2 *4496:X 9.40949e-05
3 *140:108 *4386:D 0
4 *260:20 *4386:D 1.85861e-05
5 *283:23 *4386:D 4.86429e-05
*RES
1 *4496:X *4386:D 29.5152 
*END

*D_NET *413 0.00245431
*CONN
*I *4125:C I *D sky130_fd_sc_hd__or4b_1
*I *4289:A I *D sky130_fd_sc_hd__and3_1
*I *4288:B1 I *D sky130_fd_sc_hd__a21o_1
*I *4497:X O *D sky130_fd_sc_hd__dlygate4sd3_1
*CAP
1 *4125:C 0.000357406
2 *4289:A 0.000125247
3 *4288:B1 0.000202745
4 *4497:X 0
5 *413:4 0.000685397
6 *4125:C *4125:A 2.07878e-05
7 *4132:A3 *4289:A 5.31541e-05
8 *4300:B *4289:A 5.89612e-05
9 *4499:A *4125:C 4.18895e-05
10 *4499:A *4288:B1 0.000320024
11 *100:135 *4125:C 0.000403585
12 *130:68 *4125:C 1.98839e-05
13 *130:68 *4288:B1 9.77274e-05
14 *130:68 *4289:A 6.75007e-05
*RES
1 *4497:X *413:4 9.3 
2 *413:4 *4288:B1 14.3714 
3 *413:4 *4289:A 21.1571 
4 *413:4 *4125:C 16.8179 
*END

*D_NET *414 0.000176212
*CONN
*I *4290:C I *D sky130_fd_sc_hd__and3b_1
*I *4498:X O *D sky130_fd_sc_hd__dlygate4sd3_1
*CAP
1 *4290:C 8.60888e-05
2 *4498:X 8.60888e-05
3 *4290:B *4290:C 4.0342e-06
*RES
1 *4498:X *4290:C 19.9571 
*END

*D_NET *415 0.000370766
*CONN
*I *4400:D I *D sky130_fd_sc_hd__dfxtp_1
*I *4499:X O *D sky130_fd_sc_hd__dlygate4sd3_1
*CAP
1 *4400:D 0.000109764
2 *4499:X 0.000109764
3 *4498:A *4400:D 0
4 *4499:A *4400:D 5.01213e-05
5 *309:6 *4400:D 0.000101117
*RES
1 *4499:X *4400:D 29.9259 
*END

*D_NET *416 0.00319322
*CONN
*I *4325:A I *D sky130_fd_sc_hd__and3_1
*I *4324:B1 I *D sky130_fd_sc_hd__a21o_1
*I *4129:A I *D sky130_fd_sc_hd__or4_1
*I *4500:X O *D sky130_fd_sc_hd__dlygate4sd3_1
*CAP
1 *4325:A 0.000192105
2 *4324:B1 0.000531598
3 *4129:A 0.000359654
4 *4500:X 0
5 *416:6 0.000891252
6 *416:4 0.000192105
7 *4129:A *4128:A 4.46186e-06
8 *4324:B1 *4413:D 0.000231812
9 *4325:A *4325:B 1.80815e-06
10 *4131:C *4129:A 0.000230475
11 *4324:A2 *4324:B1 1.33343e-05
12 *4325:C *4325:A 0.000127617
13 *4327:D *4129:A 0
14 *4327:D *4324:B1 0
15 *4334:A *4129:A 0
16 *4334:A *4324:B1 0
17 *4413:CLK *4324:B1 0.000271345
18 *247:12 *4129:A 2.89016e-05
19 *247:60 *4129:A 0
20 *326:8 *4324:B1 0.000116746
*RES
1 *4500:X *416:4 9.3 
2 *416:4 *416:6 4.5 
3 *416:6 *4129:A 20.2643 
4 *416:6 *4324:B1 24.6036 
5 *416:4 *4325:A 11.9071 
*END

*D_NET *417 0.000846585
*CONN
*I *4348:D I *D sky130_fd_sc_hd__dfxtp_1
*I *4541:X O *D sky130_fd_sc_hd__dlygate4sd3_1
*CAP
1 *4348:D 0.000283246
2 *4541:X 0.000283246
3 *4348:D *4615:A 0
4 led[2] *4348:D 4.1331e-06
5 led[4] *4348:D 0
6 led[5] *4348:D 0
7 *4164:A1 *4348:D 7.6644e-05
8 *4164:B1 *4348:D 8.41806e-05
9 *4348:CLK *4348:D 0.000103329
10 *4541:A *4348:D 1.18064e-05
11 *4563:A *4348:D 0
12 *134:95 *4348:D 0
*RES
1 *4541:X *4348:D 33.2652 
*END

*D_NET *418 0.000739855
*CONN
*I *4413:D I *D sky130_fd_sc_hd__dfxtp_1
*I *4501:X O *D sky130_fd_sc_hd__dlygate4sd3_1
*CAP
1 *4413:D 0.000146994
2 *4501:X 0.000146994
3 *4413:D *458:14 0.000101545
4 *4413:D *458:20 9.25014e-06
5 *4324:B1 *4413:D 0.000231812
6 *4500:A *4413:D 0.00010326
*RES
1 *4501:X *4413:D 31.158 
*END

*D_NET *419 0.00120843
*CONN
*I *4269:A1 I *D sky130_fd_sc_hd__o21ai_1
*I *4268:A I *D sky130_fd_sc_hd__and2_1
*I *4502:X O *D sky130_fd_sc_hd__dlygate4sd3_1
*CAP
1 *4269:A1 0.000232951
2 *4268:A 0
3 *4502:X 0.000205568
4 *419:12 0.000438518
5 *4120:D_N *419:12 0
6 *4268:B *4269:A1 0.000274294
7 *4269:B1 *4269:A1 2.14658e-05
8 *4503:A *419:12 6.05161e-06
9 *213:49 *419:12 0
10 *215:10 *419:12 0
11 *286:6 *4269:A1 2.95841e-05
*RES
1 *4502:X *419:12 20.8893 
2 *419:12 *4268:A 9.3 
3 *419:12 *4269:A1 13.9786 
*END

*D_NET *420 0.000742078
*CONN
*I *4270:B I *D sky130_fd_sc_hd__nor2_1
*I *4503:X O *D sky130_fd_sc_hd__dlygate4sd3_1
*CAP
1 *4270:B 0.00031322
2 *4503:X 0.00031322
3 *4503:A *4270:B 3.69047e-06
4 *4505:A *4270:B 0.000111948
5 *215:10 *4270:B 0
6 *262:16 *4270:B 0
*RES
1 *4503:X *4270:B 32.2607 
*END

*D_NET *421 0.000598325
*CONN
*I *4388:D I *D sky130_fd_sc_hd__dfxtp_1
*I *4505:X O *D sky130_fd_sc_hd__dlygate4sd3_1
*CAP
1 *4388:D 0.000247501
2 *4505:X 0.000247501
3 *4388:CLK *4388:D 0.000103323
4 *4503:A *4388:D 0
5 *262:16 *4388:D 0
*RES
1 *4505:X *4388:D 31.8723 
*END

*D_NET *422 0.00503947
*CONN
*I *4294:A I *D sky130_fd_sc_hd__or2_1
*I *4295:A I *D sky130_fd_sc_hd__and3_1
*I *4125:A I *D sky130_fd_sc_hd__or4b_1
*I *4506:X O *D sky130_fd_sc_hd__dlygate4sd3_1
*CAP
1 *4294:A 0.000161316
2 *4295:A 0.000588752
3 *4125:A 0.000801373
4 *4506:X 0
5 *422:6 0.00140316
6 *422:4 0.000174346
7 *4295:A *4295:B 0
8 *527:DIODE *4125:A 4.78056e-05
9 *528:DIODE *4125:A 0.000297855
10 *574:DIODE *4125:A 0
11 *574:DIODE *4295:A 0.000163979
12 *4125:C *4125:A 2.07878e-05
13 *4137:B *4125:A 0.000230475
14 *4137:B *4294:A 0.000269115
15 *4137:B *422:6 4.27935e-05
16 *4294:B *4125:A 8.55687e-05
17 *4294:B *4294:A 0.00018227
18 *4294:B *422:6 1.39841e-05
19 *4296:C *4294:A 8.80589e-05
20 *4296:C *4295:A 0
21 *4297:B *4125:A 0
22 *4456:A *4125:A 0
23 *4513:A *4295:A 0
24 *4514:A *4295:A 0
25 *100:135 *4125:A 0.000467834
*RES
1 *4506:X *422:4 9.3 
2 *422:4 *422:6 0.535714 
3 *422:6 *4125:A 31.4964 
4 *422:6 *4295:A 29.0143 
5 *422:4 *4294:A 14.9429 
*END

*D_NET *423 0.000767387
*CONN
*I *4146:C I *D sky130_fd_sc_hd__nor3_1
*I *4126:C I *D sky130_fd_sc_hd__and3_1
*I *4507:X O *D sky130_fd_sc_hd__dlygate4sd3_1
*CAP
1 *4146:C 0.000131198
2 *4126:C 0
3 *4507:X 6.43346e-05
4 *423:10 0.000195533
5 *4146:C *4285:C1 0.000100625
6 *4132:A1 *4146:C 0.000104658
7 *4132:B1 *4146:C 0
8 *4285:A2 *423:10 5.33882e-05
9 *100:127 *423:10 3.25247e-05
10 *141:10 *4146:C 7.43578e-06
11 *362:70 *4146:C 7.32272e-05
12 *367:14 *423:10 4.46186e-06
*RES
1 *4507:X *423:10 19.6393 
2 *423:10 *4126:C 9.3 
3 *423:10 *4146:C 13.2464 
*END

*D_NET *424 0.000595791
*CONN
*I *4340:D I *D sky130_fd_sc_hd__dfxtp_2
*I *4508:X O *D sky130_fd_sc_hd__dlygate4sd3_1
*CAP
1 *4340:D 0.000152595
2 *4508:X 0.000152595
3 *4101:A *4340:D 4.7054e-05
4 *4285:D1 *4340:D 2.09961e-05
5 *259:42 *4340:D 0.000188012
6 *394:43 *4340:D 3.454e-05
*RES
1 *4508:X *4340:D 31.3545 
*END

*D_NET *425 0.0013882
*CONN
*I *4260:A1 I *D sky130_fd_sc_hd__o21ai_1
*I *4259:A I *D sky130_fd_sc_hd__and2_1
*I *4509:X O *D sky130_fd_sc_hd__dlygate4sd3_1
*CAP
1 *4260:A1 4.25931e-05
2 *4259:A 0.000252684
3 *4509:X 0
4 *425:4 0.000295277
5 *4259:A *4261:B 2.89016e-05
6 *4259:B *4259:A 7.49933e-05
7 *4260:A2 *4259:A 0.000102207
8 *4260:A2 *4260:A1 3.18676e-05
9 *4263:A2 *4259:A 1.15281e-05
10 *4510:A *4259:A 6.25963e-05
11 *207:23 *4259:A 0.00048555
*RES
1 *4509:X *425:4 9.3 
2 *425:4 *4259:A 16.425 
3 *425:4 *4260:A1 10.2643 
*END

*D_NET *426 0.000468729
*CONN
*I *4261:B I *D sky130_fd_sc_hd__nor2_1
*I *4510:X O *D sky130_fd_sc_hd__dlygate4sd3_1
*CAP
1 *4261:B 7.5759e-05
2 *4510:X 7.5759e-05
3 *4259:A *4261:B 2.89016e-05
4 *4259:B *4261:B 3.88666e-05
5 *4261:A *4261:B 7.69167e-05
6 *4263:A2 *4261:B 0.000119193
7 *4385:D *4261:B 5.33334e-05
*RES
1 *4510:X *4261:B 21.6179 
*END

*D_NET *427 0.00376778
*CONN
*I *4300:A I *D sky130_fd_sc_hd__or3_1
*I *4299:B1 I *D sky130_fd_sc_hd__o31a_2
*I *4127:C I *D sky130_fd_sc_hd__or4b_1
*I *4511:X O *D sky130_fd_sc_hd__dlygate4sd3_1
*CAP
1 *4300:A 2.18641e-05
2 *4299:B1 1.99912e-05
3 *4127:C 0.000445539
4 *4511:X 0
5 *427:12 0.000811744
6 *427:4 0.000368079
7 *4127:D_N *4127:C 4.88637e-05
8 *4299:A2 *4127:C 7.43578e-06
9 *4299:A2 *4299:B1 6.20656e-05
10 *4299:A3 *4299:B1 9.28838e-05
11 *4299:A3 *427:12 0.00014751
12 *4301:A_N *4127:C 0.00018372
13 *4301:B *4127:C 1.33343e-05
14 *4305:A *4127:C 5.52302e-05
15 *4511:A *427:12 0.000274294
16 *144:24 *4127:C 1.74352e-05
17 *144:95 *4127:C 1.21289e-05
18 *226:21 *4300:A 7.32955e-05
19 *226:21 *427:12 0.000171023
20 *234:8 *4127:C 0.000303486
21 *234:10 *4127:C 3.17148e-05
22 *264:12 *4127:C 7.80968e-05
23 *264:14 *4127:C 6.63569e-05
24 *367:22 *4300:A 8.07313e-05
25 *367:22 *427:12 0.000380956
*RES
1 *4511:X *427:4 9.3 
2 *427:4 *427:12 10.2321 
3 *427:12 *4127:C 28.8714 
4 *427:12 *4299:B1 10.675 
5 *427:4 *4300:A 10.6571 
*END

*D_NET *428 0.00097743
*CONN
*I *4162:A1 I *D sky130_fd_sc_hd__a21o_1
*I *4552:X O *D sky130_fd_sc_hd__dlygate4sd3_1
*CAP
1 *4162:A1 0.000235209
2 *4552:X 0.000235209
3 *4164:A1 *4162:A1 4.47762e-05
4 *4164:B1 *4162:A1 0.000151095
5 *4541:A *4162:A1 1.92905e-05
6 *134:97 *4162:A1 0.000291851
*RES
1 *4552:X *4162:A1 33.5464 
*END

*D_NET *429 0.00179037
*CONN
*I *4285:C1 I *D sky130_fd_sc_hd__a2111o_1
*I *4512:X O *D sky130_fd_sc_hd__dlygate4sd3_1
*CAP
1 *4285:C1 0.000575566
2 *4512:X 0.000575566
3 *538:DIODE *4285:C1 1.45268e-05
4 *4126:B *4285:C1 4.15914e-05
5 *4146:C *4285:C1 0.000100625
6 *4147:B1 *4285:C1 2.84109e-05
7 *4286:B *4285:C1 3.80613e-05
8 *4342:D *4285:C1 0.000182598
9 *4458:A *4285:C1 9.64007e-05
10 *100:123 *4285:C1 7.83659e-05
11 *141:10 *4285:C1 1.76564e-05
12 *225:10 *4285:C1 4.10026e-05
*RES
1 *4512:X *4285:C1 37.9393 
*END

*D_NET *430 0.000811789
*CONN
*I *4403:D I *D sky130_fd_sc_hd__dfxtp_1
*I *4513:X O *D sky130_fd_sc_hd__dlygate4sd3_1
*CAP
1 *4403:D 0.000405894
2 *4513:X 0.000405894
3 *4513:A *4403:D 0
4 *311:12 *4403:D 0
*RES
1 *4513:X *4403:D 33.9616 
*END

*D_NET *431 0.00148618
*CONN
*I *4295:B I *D sky130_fd_sc_hd__and3_1
*I *4291:A I *D sky130_fd_sc_hd__or2_1
*I *4292:A I *D sky130_fd_sc_hd__and2_1
*I *4514:X O *D sky130_fd_sc_hd__dlygate4sd3_1
*CAP
1 *4295:B 8.95415e-05
2 *4291:A 0.000133077
3 *4292:A 0
4 *4514:X 0.000154627
5 *431:8 0.000240958
6 *431:6 0.00035205
7 *4295:A *4295:B 0
8 *4295:C *4291:A 4.41976e-05
9 *4295:C *4295:B 4.06782e-05
10 *4295:C *431:8 5.33005e-05
11 *4514:A *4295:B 3.34295e-05
12 *228:14 *4291:A 0.000100684
13 *228:21 *4291:A 0.000143375
14 *230:14 *4291:A 0.000100261
*RES
1 *4514:X *431:6 11.8893 
2 *431:6 *431:8 1.76786 
3 *431:8 *4292:A 9.3 
4 *431:8 *4291:A 12.7286 
5 *431:6 *4295:B 20.2464 
*END

*D_NET *432 0.00258577
*CONN
*I *4242:B1 I *D sky130_fd_sc_hd__o31a_1
*I *4243:A I *D sky130_fd_sc_hd__or4_1
*I *4245:B1 I *D sky130_fd_sc_hd__o311a_2
*I *4516:X O *D sky130_fd_sc_hd__dlygate4sd3_1
*CAP
1 *4242:B1 2.46352e-05
2 *4243:A 0.000359562
3 *4245:B1 0.000271961
4 *4516:X 0
5 *432:21 0.000521169
6 *432:4 0.000408932
7 *4243:A *4242:A2 2.58821e-05
8 *4243:A *488:70 0.000351169
9 *4245:B1 *4245:A1 4.1331e-06
10 *4245:B1 *460:54 0.000337637
11 *432:21 *4242:A1 0.000144773
12 *432:21 *4242:A2 5.33334e-05
13 *432:21 *460:50 9.22103e-06
14 *4143:A3 *4243:A 1.88048e-05
15 *4246:A2 *4245:B1 0
16 *4593:A *4245:B1 0
17 *198:6 *4245:B1 2.61099e-05
18 *263:63 *4243:A 2.84494e-05
*RES
1 *4516:X *432:4 9.3 
2 *432:4 *4245:B1 23.6214 
3 *432:4 *432:21 3.01786 
4 *432:21 *4243:A 23.6929 
5 *432:21 *4242:B1 9.72857 
*END

*D_NET *433 0.000427353
*CONN
*I *4347:D I *D sky130_fd_sc_hd__dfxtp_1
*I *4563:X O *D sky130_fd_sc_hd__dlygate4sd3_1
*CAP
1 *4347:D 0.000153497
2 *4563:X 0.000153497
3 *4347:D *4616:A 1.64343e-05
4 *4347:D *495:12 4.2453e-05
5 led[5] *4347:D 4.87669e-06
6 *4578:A *4347:D 5.65955e-05
7 *267:59 *4347:D 0
8 *267:65 *4347:D 0
*RES
1 *4563:X *4347:D 30.2473 
*END

*D_NET *434 0.0149745
*CONN
*I *522:DIODE I *D sky130_fd_sc_hd__diode_2
*I *4283:B I *D sky130_fd_sc_hd__or2_1
*I *4608:X O *D sky130_fd_sc_hd__buf_1
*CAP
1 *522:DIODE 0
2 *4283:B 0.00012191
3 *4608:X 0.00212746
4 *434:20 0.00170863
5 *434:16 0.00494127
6 *434:14 0.00548201
7 *4258:B *434:20 5.23057e-05
8 *4383:D *434:20 5.25887e-05
9 *4466:A *434:20 0.000126639
10 *4467:A *434:16 0.000144773
11 *4467:A *434:20 0.000122159
12 *4470:A *434:20 3.14163e-05
13 *14:13 *434:14 2.79092e-05
14 *281:10 *434:20 3.53917e-05
*RES
1 *4608:X *434:14 43.5054 
2 *434:14 *434:16 52.0804 
3 *434:16 *434:20 19.4464 
4 *434:20 *4283:B 11.2821 
5 *434:20 *522:DIODE 9.3 
*END

*D_NET *435 0.00159735
*CONN
*I *4154:A1 I *D sky130_fd_sc_hd__o21ba_1
*I *4574:X O *D sky130_fd_sc_hd__dlygate4sd3_1
*CAP
1 *4154:A1 0.00061705
2 *4574:X 0.00061705
3 *4154:A1 *4345:D 0.000175519
4 *4154:A1 *4574:A 0
5 *4154:A1 *445:8 0
6 led[0] *4154:A1 0.000187729
7 led[4] *4154:A1 0
8 *4585:A *4154:A1 0
*RES
1 *4574:X *4154:A1 39.9036 
*END

*D_NET *436 0.00027137
*CONN
*I *4343:D I *D sky130_fd_sc_hd__dfxtp_1
*I *4585:X O *D sky130_fd_sc_hd__dlygate4sd3_1
*CAP
1 *4343:D 9.4883e-05
2 *4585:X 9.4883e-05
3 *4566:A *4343:D 0
4 *4585:A *4343:D 8.16036e-05
*RES
1 *4585:X *4343:D 29.7116 
*END

*D_NET *437 0.00054198
*CONN
*I *4166:A1 I *D sky130_fd_sc_hd__a21o_1
*I *4596:X O *D sky130_fd_sc_hd__dlygate4sd3_1
*CAP
1 *4166:A1 0.000221664
2 *4596:X 0.000221664
3 *4166:A1 *511:10 0
4 *4166:A2 *4166:A1 2.89114e-05
5 *4166:B1 *4166:A1 6.97409e-05
*RES
1 *4596:X *4166:A1 30.8143 
*END

*D_NET *438 0.000564298
*CONN
*I *4349:D I *D sky130_fd_sc_hd__dfxtp_1
*I *4438:X O *D sky130_fd_sc_hd__dlygate4sd3_1
*CAP
1 *4349:D 0.000282149
2 *4438:X 0.000282149
3 *4349:D *511:10 0
4 *4438:A *4349:D 0
*RES
1 *4438:X *4349:D 31.9795 
*END

*D_NET *439 0.0024473
*CONN
*I *4210:A I *D sky130_fd_sc_hd__or2_1
*I *4193:A1 I *D sky130_fd_sc_hd__o211a_1
*I *4449:X O *D sky130_fd_sc_hd__dlygate4sd3_1
*CAP
1 *4210:A 0.00066077
2 *4193:A1 0.000250608
3 *4449:X 0
4 *439:6 0.000911378
5 *4193:A1 *4197:A1 0.00040765
6 *4210:A *490:10 0
7 *4210:B *4210:A 0.00014285
8 *4366:D *4210:A 1.64343e-05
9 *4449:A *4210:A 0
10 *4460:A *4193:A1 5.76121e-05
11 *4460:A *4210:A 0
*RES
1 *4449:X *439:6 13.8 
2 *439:6 *4193:A1 20.175 
3 *439:6 *4210:A 22.5857 
*END

*D_NET *440 0.000598016
*CONN
*I *4358:D I *D sky130_fd_sc_hd__dfxtp_1
*I *4460:X O *D sky130_fd_sc_hd__dlygate4sd3_1
*CAP
1 *4358:D 0.000180666
2 *4460:X 0.000180666
3 *4358:D *4195:A1 0.000236685
4 *4460:A *4358:D 0
*RES
1 *4460:X *4358:D 31.158 
*END

*D_NET *441 0.00302625
*CONN
*I *4226:A1 I *D sky130_fd_sc_hd__o211a_1
*I *4240:A I *D sky130_fd_sc_hd__or2_1
*I *4471:X O *D sky130_fd_sc_hd__dlygate4sd3_1
*CAP
1 *4226:A1 2.23854e-05
2 *4240:A 0.000783903
3 *4471:X 7.02809e-05
4 *441:6 0.00087657
5 *4240:A *4133:A_N 9.4998e-05
6 *4240:A *4241:A1 0.000216852
7 *4240:A *4241:A2 9.71197e-05
8 *4226:A2 *441:6 0.000224583
9 *4226:C1 *441:6 0.00010096
10 *4241:B1 *4240:A 2.95726e-05
11 *4471:A *4240:A 0.000166416
12 *4471:A *441:6 8.12055e-05
13 *122:8 *4240:A 2.90075e-05
14 *131:12 *4240:A 0.000232399
*RES
1 *4471:X *441:6 11.8893 
2 *441:6 *4240:A 21.9071 
3 *441:6 *4226:A1 9.72857 
*END

*D_NET *442 0.00106689
*CONN
*I *4373:D I *D sky130_fd_sc_hd__dfxtp_1
*I *4482:X O *D sky130_fd_sc_hd__dlygate4sd3_1
*CAP
1 *4373:D 0.000247674
2 *4482:X 0.000247674
3 *4373:D *4207:A1 0.000153054
4 *97:45 *4373:D 0.000227539
5 *298:10 *4373:D 0
6 *373:216 *4373:D 0.000190948
*RES
1 *4482:X *4373:D 33.8187 
*END

*D_NET *443 0.000529061
*CONN
*I *4168:A1 I *D sky130_fd_sc_hd__a21o_1
*I *4493:X O *D sky130_fd_sc_hd__dlygate4sd3_1
*CAP
1 *4168:A1 0.000243735
2 *4493:X 0.000243735
3 *4493:A *4168:A1 4.15914e-05
*RES
1 *4493:X *4168:A1 30.8143 
*END

*D_NET *444 0.000346877
*CONN
*I *4350:D I *D sky130_fd_sc_hd__dfxtp_1
*I *4504:X O *D sky130_fd_sc_hd__dlygate4sd3_1
*CAP
1 *4350:D 0.000173439
2 *4504:X 0.000173439
3 *4350:CLK *4350:D 0
4 *4504:A *4350:D 0
*RES
1 *4504:X *4350:D 30.3366 
*END

*D_NET *445 0.000471852
*CONN
*I *4574:A I *D sky130_fd_sc_hd__dlygate4sd3_1
*I *4611:A I *D sky130_fd_sc_hd__buf_2
*I *4343:Q O *D sky130_fd_sc_hd__dfxtp_1
*CAP
1 *4574:A 0.000122185
2 *4611:A 0
3 *4343:Q 9.2945e-05
4 *445:8 0.00021513
5 led[0] *445:8 4.15914e-05
6 *4154:A1 *4574:A 0
7 *4154:A1 *445:8 0
*RES
1 *4343:Q *445:8 15.7464 
2 *445:8 *4611:A 13.8 
3 *445:8 *4574:A 16.05 
*END

*D_NET *446 0.0048979
*CONN
*I *4302:A1 I *D sky130_fd_sc_hd__o21ai_1
*I *4305:B I *D sky130_fd_sc_hd__and2_1
*I *4127:B I *D sky130_fd_sc_hd__or4b_1
*I *4303:A1 I *D sky130_fd_sc_hd__a21oi_1
*I *4304:A1 I *D sky130_fd_sc_hd__a21o_1
*I *4515:X O *D sky130_fd_sc_hd__dlygate4sd3_1
*CAP
1 *4302:A1 0.000122405
2 *4305:B 0.000134597
3 *4127:B 0
4 *4303:A1 0.000446993
5 *4304:A1 0.000103624
6 *4515:X 0
7 *446:36 0.000186625
8 *446:10 0.0007685
9 *446:8 0.000711622
10 *446:4 0.000564116
11 *4131:A *4305:B 0
12 *4303:B1 *4302:A1 0.000148189
13 *4304:A2 *4304:A1 5.71472e-05
14 *4305:A *4305:B 0.000170661
15 *4309:C1 *4304:A1 3.93986e-05
16 *4309:C1 *446:10 3.50838e-05
17 *4406:CLK *4303:A1 0.000191203
18 *4406:CLK *446:10 0
19 *4406:D *4303:A1 1.64343e-05
20 *4472:A *446:10 0.000169572
21 *4473:A *4304:A1 0.000146842
22 *4473:A *446:10 0.000123912
23 *4474:A *4303:A1 0.000181803
24 *4517:A *4303:A1 5.19842e-06
25 *144:24 *4305:B 4.16021e-05
26 *144:24 *446:10 2.6949e-05
27 *144:24 *446:36 2.37761e-05
28 *234:26 *446:8 0.00044468
29 *234:64 *4302:A1 3.69697e-05
30 *264:14 *4305:B 0
31 *264:14 *446:10 0
32 *264:14 *446:36 0
*RES
1 *4515:X *446:4 9.3 
2 *446:4 *446:8 10.375 
3 *446:8 *446:10 6.19643 
4 *446:10 *4304:A1 16.3893 
5 *446:10 *4303:A1 21.05 
6 *446:8 *446:36 1.03571 
7 *446:36 *4127:B 13.8 
8 *446:36 *4305:B 16.9607 
9 *446:4 *4302:A1 20.7821 
*END

*D_NET *447 0.000392377
*CONN
*I *4405:D I *D sky130_fd_sc_hd__dfxtp_1
*I *4517:X O *D sky130_fd_sc_hd__dlygate4sd3_1
*CAP
1 *4405:D 0.00015748
2 *4517:X 0.00015748
3 *4517:A *4405:D 0
4 *234:26 *4405:D 2.40379e-05
5 *264:14 *4405:D 5.33786e-05
*RES
1 *4517:X *4405:D 30.0509 
*END

*D_NET *448 0.00260687
*CONN
*I *4284:A1 I *D sky130_fd_sc_hd__a31o_1
*I *4206:A I *D sky130_fd_sc_hd__or2_1
*I *4518:X O *D sky130_fd_sc_hd__dlygate4sd3_1
*CAP
1 *4284:A1 0.00016605
2 *4206:A 0.000664872
3 *4518:X 0
4 *448:4 0.000830922
5 *4206:A *4206:B 0.00010096
6 *4100:A *4206:A 1.21258e-05
7 *4207:C1 *4206:A 7.48301e-06
8 *100:66 *4206:A 2.89114e-05
9 *100:79 *4206:A 0.000646036
10 *100:79 *4284:A1 7.77652e-05
11 *373:64 *4284:A1 5.52302e-05
12 *373:145 *4284:A1 1.65169e-05
*RES
1 *4518:X *448:4 9.3 
2 *448:4 *4206:A 22.5679 
3 *448:4 *4284:A1 12.3179 
*END

*D_NET *449 0.000461913
*CONN
*I *4399:D I *D sky130_fd_sc_hd__dfxtp_1
*I *4520:X O *D sky130_fd_sc_hd__dlygate4sd3_1
*CAP
1 *4399:D 0.000176736
2 *4520:X 0.000176736
3 *4333:A *4399:D 0
4 *4399:CLK *4399:D 1.64343e-05
5 *4415:CLK *4399:D 5.62995e-05
6 *4543:A *4399:D 3.5707e-05
*RES
1 *4520:X *4399:D 30.658 
*END

*D_NET *450 0.00312456
*CONN
*I *4133:A_N I *D sky130_fd_sc_hd__and2b_1
*I *4241:A1 I *D sky130_fd_sc_hd__o211a_1
*I *4124:A1 I *D sky130_fd_sc_hd__a221o_1
*I *4521:X O *D sky130_fd_sc_hd__dlygate4sd3_1
*CAP
1 *4133:A_N 5.95904e-05
2 *4241:A1 9.62676e-05
3 *4124:A1 0.000145954
4 *4521:X 0.000226819
5 *450:21 0.000353465
6 *450:8 0.00057038
7 *450:21 *4378:D 0
8 *4240:A *4133:A_N 9.4998e-05
9 *4240:A *4241:A1 0.000216852
10 *4394:CLK *450:8 0
11 *4536:A *4124:A1 0.000251939
12 *4554:A *4133:A_N 4.08637e-05
13 *4554:A *4241:A1 0.000274288
14 *100:338 *4124:A1 1.15172e-05
15 *122:8 *4241:A1 2.59355e-05
16 *122:12 *450:21 0
17 *122:32 *450:21 0
18 *151:10 *450:8 0.000359117
19 *151:10 *450:21 0.000363252
20 *287:14 *4124:A1 3.33238e-05
21 *287:14 *450:8 0
*RES
1 *4521:X *450:8 18.4786 
2 *450:8 *4124:A1 16.8 
3 *450:8 *450:21 9.17857 
4 *450:21 *4241:A1 13.1214 
5 *450:21 *4133:A_N 10.6571 
*END

*D_NET *451 0.00046116
*CONN
*I *4394:D I *D sky130_fd_sc_hd__dfxtp_1
*I *4522:X O *D sky130_fd_sc_hd__dlygate4sd3_1
*CAP
1 *4394:D 0.000165379
2 *4522:X 0.000165379
3 *4394:CLK *4394:D 6.77203e-05
4 *100:328 *4394:D 0
5 *133:10 *4394:D 0
6 *151:10 *4394:D 6.26818e-05
*RES
1 *4522:X *4394:D 30.9795 
*END

*D_NET *452 0.00194293
*CONN
*I *4129:C I *D sky130_fd_sc_hd__or4_1
*I *4320:A1 I *D sky130_fd_sc_hd__o21ai_1
*I *4319:A I *D sky130_fd_sc_hd__and4_1
*I *4523:X O *D sky130_fd_sc_hd__dlygate4sd3_1
*CAP
1 *4129:C 0.000124066
2 *4320:A1 0.000155423
3 *4319:A 0
4 *4523:X 4.00453e-05
5 *452:15 0.000320099
6 *452:6 8.06546e-05
7 *4129:C *4129:D 9.31353e-05
8 *4320:A1 *4129:D 1.17968e-05
9 *4320:A1 *4315:B 0.000188586
10 *4320:A1 *516:34 6.94877e-05
11 *4320:A1 *516:45 4.23086e-05
12 *4317:A2 *4320:A1 0.000207478
13 *4320:A2 *4320:A1 0.000168057
14 *4524:A *4129:C 0.000141375
15 *4524:A *4320:A1 0.000176226
16 *4588:A *4320:A1 9.25014e-06
17 *144:148 *4129:C 0
18 *144:148 *4320:A1 0.00010096
19 *247:12 *4129:C 1.39841e-05
20 *247:60 *4129:C 0
*RES
1 *4523:X *452:6 9.83571 
2 *452:6 *4319:A 9.3 
3 *452:6 *452:15 5.03571 
4 *452:15 *4320:A1 20.7821 
5 *452:15 *4129:C 16.9964 
*END

*D_NET *453 0.000198729
*CONN
*I *4321:B I *D sky130_fd_sc_hd__nor2_1
*I *4524:X O *D sky130_fd_sc_hd__dlygate4sd3_1
*CAP
1 *4321:B 3.34072e-05
2 *4524:X 3.34072e-05
3 *4322:B1 *4321:B 5.41494e-05
4 *247:12 *4321:B 7.77652e-05
*RES
1 *4524:X *4321:B 19.9571 
*END

*D_NET *454 0.000633491
*CONN
*I *4411:D I *D sky130_fd_sc_hd__dfxtp_1
*I *4525:X O *D sky130_fd_sc_hd__dlygate4sd3_1
*CAP
1 *4411:D 0.000177455
2 *4525:X 0.000177455
3 *4523:A *4411:D 0.000278581
4 *261:40 *4411:D 0
*RES
1 *4525:X *4411:D 31.5688 
*END

*D_NET *455 0.00206718
*CONN
*I *4224:A1 I *D sky130_fd_sc_hd__o211a_1
*I *4207:A1 I *D sky130_fd_sc_hd__o211a_1
*I *4526:X O *D sky130_fd_sc_hd__dlygate4sd3_1
*CAP
1 *4224:A1 0
2 *4207:A1 0.000538012
3 *4526:X 8.5526e-05
4 *455:6 0.000623538
5 *4207:A1 *460:109 0
6 *4207:A1 *460:126 0.000144773
7 *555:DIODE *4207:A1 7.77652e-05
8 *4223:B *4207:A1 0
9 *4224:A2 *455:6 5.33005e-05
10 *4224:C1 *4207:A1 0
11 *4226:A2 *4207:A1 0.000100831
12 *4373:D *4207:A1 0.000153054
13 *97:45 *4207:A1 0
14 *134:81 *455:6 5.04705e-05
15 *177:10 *4207:A1 0
16 *178:12 *4207:A1 2.24646e-05
17 *178:14 *4207:A1 0.000211642
18 *180:46 *4207:A1 5.80706e-06
19 *373:192 *4207:A1 0
*RES
1 *4526:X *455:6 11.0679 
2 *455:6 *4207:A1 29.4964 
3 *455:6 *4224:A1 9.3 
*END

*D_NET *456 0.00732152
*CONN
*I *4612:A I *D sky130_fd_sc_hd__buf_2
*I *4583:A I *D sky130_fd_sc_hd__dlygate4sd3_1
*I *4344:Q O *D sky130_fd_sc_hd__dfxtp_1
*CAP
1 *4612:A 0.000196829
2 *4583:A 0.00201242
3 *4344:Q 0.000127454
4 *456:6 0.0023367
5 *4583:A *4175:A1 5.47783e-05
6 *4583:A *4344:D 8.42801e-05
7 *4612:A *4159:A 7.83587e-05
8 led[1] *4612:A 0.000191629
9 *4148:B *4583:A 0
10 *4155:B *4612:A 0.000362261
11 *4175:A2 *4583:A 0.00104535
12 *4175:B1 *4583:A 1.02937e-05
13 *4188:B1 *4583:A 0.000251492
14 *4188:B2 *4583:A 0.000197984
15 *4339:D *4612:A 4.21278e-05
16 *4344:CLK *4583:A 4.58194e-05
17 *4351:CLK *4583:A 8.78332e-05
18 *4351:D *4583:A 1.76204e-05
19 *4602:A *4583:A 3.4879e-05
20 *153:21 *4583:A 2.41865e-05
21 *265:130 *4612:A 2.00751e-05
22 *362:35 *4583:A 9.91496e-05
*RES
1 *4344:Q *456:6 10.6571 
2 *456:6 *4583:A 46.2286 
3 *456:6 *4612:A 24.8 
*END

*D_NET *457 0.00101041
*CONN
*I *4372:D I *D sky130_fd_sc_hd__dfxtp_1
*I *4527:X O *D sky130_fd_sc_hd__dlygate4sd3_1
*CAP
1 *4372:D 0.000158887
2 *4527:X 0.000158887
3 *4220:A2 *4372:D 1.76204e-05
4 *4371:D *4372:D 0.000103253
5 *4526:A *4372:D 0.000197006
6 *177:27 *4372:D 0.000305517
7 *178:14 *4372:D 0
8 *178:61 *4372:D 5.33005e-05
9 *266:66 *4372:D 1.00375e-05
10 *266:79 *4372:D 5.90443e-06
*RES
1 *4527:X *4372:D 32.6759 
*END

*D_NET *458 0.00561356
*CONN
*I *4327:C I *D sky130_fd_sc_hd__and4_2
*I *4323:A1 I *D sky130_fd_sc_hd__a21oi_1
*I *4322:A1 I *D sky130_fd_sc_hd__o21ai_1
*I *4324:A1 I *D sky130_fd_sc_hd__a21o_1
*I *4325:B I *D sky130_fd_sc_hd__and3_1
*I *4129:B I *D sky130_fd_sc_hd__or4_1
*I *4528:X O *D sky130_fd_sc_hd__dlygate4sd3_1
*CAP
1 *4327:C 3.14357e-05
2 *4323:A1 0
3 *4322:A1 0.000162373
4 *4324:A1 6.32027e-05
5 *4325:B 0.000312357
6 *4129:B 4.85613e-05
7 *4528:X 0.000263711
8 *458:46 0.000660667
9 *458:20 0.000495724
10 *458:14 0.00072796
11 *458:12 0.000453209
12 *4324:A1 *4412:D 0
13 *4322:A2 *4322:A1 9.04577e-05
14 *4322:A2 *458:46 7.48301e-06
15 *4322:B1 *4322:A1 0.000318101
16 *4323:B1 *4322:A1 0.00040765
17 *4325:A *4325:B 1.80815e-06
18 *4325:C *4325:B 2.18999e-05
19 *4327:B *4327:C 4.51691e-05
20 *4327:B *458:14 0.000106671
21 *4328:A2 *458:12 0
22 *4328:A2 *458:14 0
23 *4328:A2 *458:20 0
24 *4413:D *458:14 0.000101545
25 *4413:D *458:20 9.25014e-06
26 *4500:A *458:14 7.2823e-05
27 *4500:A *458:20 2.72449e-05
28 *4501:A *458:46 0.000120918
29 *4529:A *4322:A1 3.18676e-05
30 *144:140 *458:20 0
31 *152:16 *458:12 0.000357952
32 *247:29 *458:46 5.33005e-05
33 *247:60 *4129:B 7.83587e-05
34 *247:60 *458:20 5.37963e-05
35 *251:12 *4325:B 0.000190848
36 *251:12 *458:46 0.000165043
37 *252:6 *458:12 2.89016e-05
38 *261:40 *4324:A1 0.000103267
*RES
1 *4528:X *458:12 19.2554 
2 *458:12 *458:14 3.91964 
3 *458:14 *458:20 2.71429 
4 *458:20 *4129:B 14.8357 
5 *458:20 *4325:B 18.0321 
6 *458:14 *458:46 11.3393 
7 *458:46 *4324:A1 19.6393 
8 *458:46 *4322:A1 15.6036 
9 *458:46 *4323:A1 9.3 
10 *458:12 *4327:C 14.3804 
*END

*D_NET *459 0.000464048
*CONN
*I *4412:D I *D sky130_fd_sc_hd__dfxtp_1
*I *4529:X O *D sky130_fd_sc_hd__dlygate4sd3_1
*CAP
1 *4412:D 0.000232024
2 *4529:X 0.000232024
3 *4324:A1 *4412:D 0
*RES
1 *4529:X *4412:D 31.158 
*END

*D_NET *460 0.0221793
*CONN
*I *4194:A I *D sky130_fd_sc_hd__or2_1
*I *4196:A I *D sky130_fd_sc_hd__or2_1
*I *4198:A I *D sky130_fd_sc_hd__or2_1
*I *4200:A I *D sky130_fd_sc_hd__or2_1
*I *4202:A I *D sky130_fd_sc_hd__or2_1
*I *4204:A I *D sky130_fd_sc_hd__or2_1
*I *4206:B I *D sky130_fd_sc_hd__or2_1
*I *4243:B I *D sky130_fd_sc_hd__or4_1
*I *4152:B2 I *D sky130_fd_sc_hd__a32o_1
*I *4242:A1 I *D sky130_fd_sc_hd__o31a_1
*I *4122:A1 I *D sky130_fd_sc_hd__a21bo_2
*I *4245:A1 I *D sky130_fd_sc_hd__o311a_2
*I *4123:A I *D sky130_fd_sc_hd__nand2_1
*I *4097:A I *D sky130_fd_sc_hd__inv_2
*I *4531:X O *D sky130_fd_sc_hd__dlygate4sd3_1
*CAP
1 *4194:A 0.000153527
2 *4196:A 0
3 *4198:A 0
4 *4200:A 1.16059e-05
5 *4202:A 0.000169009
6 *4204:A 0
7 *4206:B 0.000330672
8 *4243:B 0
9 *4152:B2 4.24076e-05
10 *4242:A1 2.14721e-05
11 *4122:A1 0.000428998
12 *4245:A1 0.000169117
13 *4123:A 2.04426e-05
14 *4097:A 2.7879e-05
15 *4531:X 0.000237159
16 *460:192 0.000316555
17 *460:179 0.00124293
18 *460:156 0.00218336
19 *460:133 0.00141182
20 *460:126 0.00030689
21 *460:109 0.00113017
22 *460:54 0.00081853
23 *460:50 0.000630806
24 *460:44 0.000678505
25 *460:42 0.000616848
26 *460:25 0.000490456
27 *460:12 0.000285913
28 *460:6 0.00103842
29 *4097:A *488:20 5.33005e-05
30 *4194:A *4196:B 9.71197e-05
31 *460:12 *488:20 0.000177227
32 *460:25 *488:20 1.17968e-05
33 *460:42 *488:47 0
34 *460:44 *488:70 7.49387e-06
35 *460:50 *4242:A2 2.44318e-05
36 *460:156 *4184:A1 0.00010096
37 *460:156 *4187:A1 3.06878e-06
38 *460:156 *4363:D 0.000232556
39 *460:179 *4199:A1 0.000274294
40 *460:179 *4201:A1 0
41 *460:179 *4218:A1 0
42 *460:179 *4219:A 5.41794e-05
43 *460:179 *4369:D 0.000185098
44 *460:179 *4370:D 0
45 *460:179 *468:8 5.52302e-05
46 *460:179 *491:12 0.00018372
47 *460:192 *491:12 4.38128e-05
48 *555:DIODE *4206:B 1.721e-05
49 *555:DIODE *460:109 8.08022e-05
50 *555:DIODE *460:126 2.24225e-05
51 *4100:A *4206:B 5.83304e-05
52 *4122:B1_N *4122:A1 8.50152e-05
53 *4135:A1 *460:6 6.09688e-05
54 *4135:A2 *460:6 5.71472e-05
55 *4135:B1 *460:12 8.00806e-05
56 *4152:B1 *4152:B2 0.000125724
57 *4167:A2 *4206:B 8.04913e-05
58 *4192:B *4194:A 2.89114e-05
59 *4199:B1 *460:179 5.71472e-05
60 *4199:C1 *460:179 5.52302e-05
61 *4200:B *460:156 9.25014e-06
62 *4200:B *460:179 0.000197984
63 *4201:C1 *4200:A 5.56063e-05
64 *4204:B *4202:A 0.000196269
65 *4204:B *460:126 4.88637e-05
66 *4204:B *460:133 0.000615963
67 *4206:A *4206:B 0.00010096
68 *4207:A1 *460:109 0
69 *4207:A1 *460:126 0.000144773
70 *4207:C1 *4206:B 3.69047e-06
71 *4219:B *460:179 0
72 *4223:B *460:109 1.85361e-05
73 *4227:A *460:12 2.14378e-05
74 *4227:A *460:25 0.00022117
75 *4227:A *460:42 0.000150625
76 *4227:B *460:42 5.52238e-05
77 *4240:B *4122:A1 2.28499e-05
78 *4242:A3 *460:54 0
79 *4244:B *4242:A1 2.44318e-05
80 *4244:B *460:44 0.000126572
81 *4244:B *460:50 0.000369369
82 *4245:B1 *4245:A1 4.1331e-06
83 *4245:B1 *460:54 0.000337637
84 *4245:C1 *460:54 0.000222878
85 *4363:CLK *460:156 1.92789e-05
86 *4375:CLK *460:42 0.000523471
87 *4375:CLK *460:44 9.61455e-05
88 *4379:D *460:50 0
89 *4380:D *4122:A1 0.000127446
90 *4380:D *460:54 1.02504e-05
91 *4440:A *460:25 0.000125731
92 *4534:A *460:179 0.00012501
93 *4558:A *4202:A 5.33005e-05
94 *4593:A *4245:A1 0
95 *97:12 *460:12 9.97744e-05
96 *97:12 *460:109 5.03772e-05
97 *97:22 *460:126 0.000154354
98 *97:77 *460:179 0
99 *100:291 *4206:B 4.66203e-05
100 *100:313 *4206:B 0.000200491
101 *122:45 *4123:A 5.33005e-05
102 *131:12 *460:12 4.34273e-05
103 *133:10 *4206:B 0.000130283
104 *133:10 *460:109 8.25843e-06
105 *140:51 *4122:A1 0
106 *177:10 *460:109 3.4323e-06
107 *180:10 *460:109 0.000222885
108 *180:19 *460:109 0.00022287
109 *198:6 *4242:A1 5.52302e-05
110 *259:154 *460:133 0.000166416
111 *259:160 *460:126 0.00061302
112 *259:160 *460:133 0.000142053
113 *259:213 *4202:A 0
114 *259:213 *460:133 2.42516e-05
115 *259:213 *460:156 1.3277e-05
116 *267:14 *460:179 0
117 *267:38 *460:179 0
118 *290:8 *4152:B2 0.000125724
119 *290:16 *4123:A 2.59355e-05
120 *301:8 *460:192 1.31516e-05
121 *301:27 *460:192 0.000121606
122 *305:12 *460:179 0.000188586
123 *306:24 *4202:A 3.76092e-05
124 *356:18 *4122:A1 0
125 *356:27 *460:54 0
126 *362:185 *460:192 0
127 *373:216 *460:109 0
128 *373:257 *460:25 2.59795e-05
129 *373:257 *460:42 3.84385e-05
130 *373:270 *460:42 3.66402e-05
131 *373:359 *4200:A 5.52238e-05
132 *432:21 *4242:A1 0.000144773
133 *432:21 *460:50 9.22103e-06
*RES
1 *4531:X *460:6 13.1214 
2 *460:6 *460:12 9 
3 *460:12 *4097:A 14.3357 
4 *460:12 *460:25 3.39286 
5 *460:25 *4123:A 14.3357 
6 *460:25 *460:42 12.8393 
7 *460:42 *460:44 3.41071 
8 *460:44 *460:50 10.1786 
9 *460:50 *460:54 6.125 
10 *460:54 *4245:A1 16.3 
11 *460:54 *4122:A1 21.55 
12 *460:50 *4242:A1 15.1571 
13 *460:44 *4152:B2 19.9429 
14 *460:42 *4243:B 9.3 
15 *460:6 *460:109 16.875 
16 *460:109 *4206:B 22.9786 
17 *460:109 *460:126 10.8036 
18 *460:126 *4204:A 9.3 
19 *460:126 *460:133 6.28571 
20 *460:133 *4202:A 22.1214 
21 *460:133 *460:156 18.1964 
22 *460:156 *4200:A 14.3357 
23 *460:156 *460:179 34.8036 
24 *460:179 *4198:A 9.3 
25 *460:179 *460:192 12.6964 
26 *460:192 *4196:A 9.3 
27 *460:192 *4194:A 11.9071 
*END

*D_NET *461 0.00184792
*CONN
*I *4220:A1 I *D sky130_fd_sc_hd__o211a_1
*I *4221:A I *D sky130_fd_sc_hd__or2_1
*I *4203:A1 I *D sky130_fd_sc_hd__o211a_1
*I *4532:X O *D sky130_fd_sc_hd__dlygate4sd3_1
*CAP
1 *4220:A1 1.99857e-05
2 *4221:A 0.000243262
3 *4203:A1 0.000164256
4 *4532:X 0
5 *461:25 0.000522811
6 *461:6 0.00042382
7 *461:25 *4216:A1 0
8 *4219:B *4203:A1 0
9 *4219:B *461:25 0
10 *4220:A2 *4220:A1 1.04232e-05
11 *4220:A2 *4221:A 0.000210801
12 *4220:B1 *4221:A 5.52238e-05
13 *4370:CLK *461:25 3.19626e-05
14 *4532:A *461:25 0
15 *4537:A *461:25 6.09572e-05
16 *97:45 *4203:A1 2.78584e-05
17 *97:62 *4203:A1 3.44824e-05
18 *259:213 *4203:A1 0
19 *259:213 *461:25 0
20 *266:16 *4221:A 1.15281e-05
21 *266:16 *461:25 3.05446e-05
*RES
1 *4532:X *461:6 13.8 
2 *461:6 *4203:A1 16.7107 
3 *461:6 *461:25 9.23214 
4 *461:25 *4221:A 13.9429 
5 *461:25 *4220:A1 9.72857 
*END

*D_NET *462 0.000576809
*CONN
*I *4363:D I *D sky130_fd_sc_hd__dfxtp_1
*I *4533:X O *D sky130_fd_sc_hd__dlygate4sd3_1
*CAP
1 *4363:D 0.000138601
2 *4533:X 0.000138601
3 *259:213 *4363:D 6.70515e-05
4 *266:22 *4363:D 0
5 *460:156 *4363:D 0.000232556
*RES
1 *4533:X *4363:D 31.158 
*END

*D_NET *463 0.00263959
*CONN
*I *4201:A1 I *D sky130_fd_sc_hd__o211a_1
*I *4218:A1 I *D sky130_fd_sc_hd__o211a_1
*I *4219:A I *D sky130_fd_sc_hd__or2_1
*I *4534:X O *D sky130_fd_sc_hd__dlygate4sd3_1
*CAP
1 *4201:A1 0.000232539
2 *4218:A1 0.000275392
3 *4219:A 0.00023601
4 *4534:X 0.000203463
5 *463:23 0.000507931
6 *463:6 0.000439474
7 *4201:A1 *4184:A1 0
8 *4201:A1 *468:14 4.35131e-05
9 *4218:A1 *4199:A1 0.000151638
10 *4218:A1 *468:14 2.28428e-05
11 *4219:A *4216:A1 0
12 *4219:A *4370:D 0
13 *4219:A *468:14 8.48761e-05
14 *463:6 *468:14 4.35452e-05
15 *4200:B *4201:A1 0
16 *4200:B *463:6 7.48301e-06
17 *4219:B *4219:A 4.1331e-06
18 *4220:C1 *4219:A 0.000108524
19 *4534:A *4201:A1 0
20 *4534:A *4218:A1 0
21 *4534:A *4219:A 7.77751e-05
22 *4535:A *4201:A1 3.9745e-05
23 *4535:A *463:6 3.67257e-05
24 *4538:A *4218:A1 6.97972e-05
25 *4556:A *4201:A1 0
26 *266:151 *4218:A1 0
27 *460:179 *4201:A1 0
28 *460:179 *4218:A1 0
29 *460:179 *4219:A 5.41794e-05
*RES
1 *4534:X *463:6 11.8893 
2 *463:6 *4219:A 22.1571 
3 *463:6 *463:23 4.5 
4 *463:23 *4218:A1 20.3 
5 *463:23 *4201:A1 17.8 
*END

*D_NET *464 0.000587316
*CONN
*I *4362:D I *D sky130_fd_sc_hd__dfxtp_1
*I *4535:X O *D sky130_fd_sc_hd__dlygate4sd3_1
*CAP
1 *4362:D 7.31306e-05
2 *4535:X 7.31306e-05
3 *97:77 *4362:D 5.01117e-05
4 *267:12 *4362:D 0.000144199
5 *267:14 *4362:D 0.000102545
6 *305:12 *4362:D 0.000144199
*RES
1 *4535:X *4362:D 30.3366 
*END

*D_NET *465 0.00051574
*CONN
*I *4133:B I *D sky130_fd_sc_hd__and2b_1
*I *4211:A I *D sky130_fd_sc_hd__nor2_2
*I *4536:X O *D sky130_fd_sc_hd__dlygate4sd3_1
*CAP
1 *4133:B 7.70491e-05
2 *4211:A 0
3 *4536:X 8.6419e-05
4 *465:8 0.000163468
5 *4211:B *4133:B 5.80706e-06
6 *4211:B *465:8 6.65398e-05
7 *4471:A *4133:B 5.56943e-05
8 *97:22 *4133:B 6.07626e-05
9 *259:160 *4133:B 0
10 *259:160 *465:8 0
*RES
1 *4536:X *465:8 15.4429 
2 *465:8 *4211:A 13.8 
3 *465:8 *4133:B 16.05 
*END

*D_NET *466 0.000567775
*CONN
*I *4370:D I *D sky130_fd_sc_hd__dfxtp_1
*I *4537:X O *D sky130_fd_sc_hd__dlygate4sd3_1
*CAP
1 *4370:D 0.000258347
2 *4537:X 0.000258347
3 *4219:A *4370:D 0
4 *4539:A *4370:D 5.10822e-05
5 *460:179 *4370:D 0
*RES
1 *4537:X *4370:D 31.5688 
*END

*D_NET *467 0.00255131
*CONN
*I *4562:A I *D sky130_fd_sc_hd__dlygate4sd3_1
*I *4613:A I *D sky130_fd_sc_hd__buf_2
*I *4345:Q O *D sky130_fd_sc_hd__dfxtp_1
*CAP
1 *4562:A 0.00013165
2 *4613:A 0.000284251
3 *4345:Q 9.81476e-05
4 *467:8 0.000514049
5 *4562:A *4157:A 0.000265453
6 *4613:A *4615:A 0
7 *467:8 *4615:A 0
8 *4153:A2 *4562:A 6.7491e-05
9 *4154:B1_N *4562:A 0.000391
10 *4164:A1 *4613:A 4.69963e-05
11 *4345:CLK *467:8 3.28897e-05
12 *4541:A *4613:A 0.00018372
13 *133:147 *4613:A 8.9163e-05
14 *133:147 *467:8 2.16719e-05
15 *134:81 *4562:A 0.0001317
16 *134:93 *4613:A 0.000293124
*RES
1 *4345:Q *467:8 15.7464 
2 *467:8 *4613:A 21.5321 
3 *467:8 *4562:A 18.8536 
*END

*D_NET *468 0.00573805
*CONN
*I *4199:A1 I *D sky130_fd_sc_hd__o211a_1
*I *4216:A1 I *D sky130_fd_sc_hd__o211a_1
*I *4217:A I *D sky130_fd_sc_hd__or2_1
*I *4538:X O *D sky130_fd_sc_hd__dlygate4sd3_1
*CAP
1 *4199:A1 0.000504775
2 *4216:A1 0.000512654
3 *4217:A 0.00015096
4 *4538:X 3.92213e-05
5 *468:14 0.000945954
6 *468:8 0.000826337
7 *4200:B *468:14 0.000315165
8 *4201:A1 *468:14 4.35131e-05
9 *4216:B1 *4216:A1 5.80706e-06
10 *4218:A1 *4199:A1 0.000151638
11 *4218:A1 *468:14 2.28428e-05
12 *4218:A2 *4199:A1 0
13 *4218:A2 *4216:A1 0
14 *4218:B1 *4199:A1 0
15 *4219:A *4216:A1 0
16 *4219:A *468:14 8.48761e-05
17 *4219:B *4216:A1 0
18 *4219:B *4217:A 0.000384607
19 *4219:B *468:14 9.47613e-05
20 *4220:C1 *4217:A 0.000261246
21 *4220:C1 *468:14 0.000160563
22 *4434:A *4216:A1 0
23 *4534:A *468:14 0.000144773
24 *4535:A *468:14 9.25014e-06
25 *4537:A *4217:A 0.00014183
26 *4539:A *4216:A1 0.000507057
27 *4540:A *4199:A1 5.71472e-05
28 *178:86 *4216:A1 0
29 *266:12 *4216:A1 0
30 *266:151 *4216:A1 0
31 *267:14 *468:14 0
32 *460:179 *4199:A1 0.000274294
33 *460:179 *468:8 5.52302e-05
34 *461:25 *4216:A1 0
35 *463:6 *468:14 4.35452e-05
*RES
1 *4538:X *468:8 14.3357 
2 *468:8 *468:14 13.1429 
3 *468:14 *4217:A 16.0143 
4 *468:14 *4216:A1 28.4429 
5 *468:8 *4199:A1 24.5679 
*END

*D_NET *469 0.000126884
*CONN
*I *4218:C1 I *D sky130_fd_sc_hd__o211a_1
*I *4539:X O *D sky130_fd_sc_hd__dlygate4sd3_1
*CAP
1 *4218:C1 6.29488e-06
2 *4539:X 6.29488e-06
3 *4218:A2 *4218:C1 5.71472e-05
4 *4218:B1 *4218:C1 5.71472e-05
*RES
1 *4539:X *4218:C1 19.1357 
*END

*D_NET *470 0.000436168
*CONN
*I *4369:D I *D sky130_fd_sc_hd__dfxtp_1
*I *4540:X O *D sky130_fd_sc_hd__dlygate4sd3_1
*CAP
1 *4369:D 9.53394e-05
2 *4540:X 9.53394e-05
3 *4361:D *4369:D 5.33786e-05
4 *97:77 *4369:D 0
5 *134:81 *4369:D 7.01199e-06
6 *460:179 *4369:D 0.000185098
*RES
1 *4540:X *4369:D 29.9438 
*END

*D_NET *471 0.00469648
*CONN
*I *4330:A1 I *D sky130_fd_sc_hd__o21ai_1
*I *4333:B I *D sky130_fd_sc_hd__nand3_1
*I *4331:A1 I *D sky130_fd_sc_hd__a21oi_1
*I *4332:A1 I *D sky130_fd_sc_hd__a21o_1
*I *4130:B I *D sky130_fd_sc_hd__or4bb_1
*I *4335:A2 I *D sky130_fd_sc_hd__a31o_1
*I *4542:X O *D sky130_fd_sc_hd__dlygate4sd3_1
*CAP
1 *4330:A1 0
2 *4333:B 2.51159e-05
3 *4331:A1 6.49287e-05
4 *4332:A1 0.000218816
5 *4130:B 0.000147079
6 *4335:A2 2.3087e-05
7 *4542:X 0
8 *471:51 0.000271845
9 *471:12 0.000249498
10 *471:8 0.0004352
11 *471:6 0.000318852
12 *4167:A1 *4331:A1 8.87097e-05
13 *4167:A1 *4333:B 4.88637e-05
14 *4330:B1 *471:51 0.000104604
15 *4331:B1 *4331:A1 5.71472e-05
16 *4332:A2 *4332:A1 1.04232e-05
17 *4332:B1 *4332:A1 0.000484262
18 *4333:A *471:51 0
19 *4333:C *4331:A1 5.33005e-05
20 *4333:C *4333:B 5.52302e-05
21 *4333:C *471:51 7.90803e-05
22 *4334:C *471:8 0.000315187
23 *4334:C *471:12 0.000223592
24 *4334:C *471:51 6.0038e-05
25 *4335:A1 *471:12 2.60158e-05
26 *4335:A3 *4335:A2 5.71472e-05
27 *4335:B1 *4130:B 0.000171859
28 *4335:B1 *4335:A2 0.00010096
29 *4336:B1 *4130:B 0.000196678
30 *4487:A *4332:A1 4.53889e-05
31 *4489:A *471:8 8.47203e-05
32 *4489:A *471:12 7.6021e-05
33 *4542:A *471:51 0
34 *4543:A *4331:A1 9.3111e-05
35 *4543:A *4333:B 7.17235e-05
36 *252:37 *4331:A1 3.48705e-05
37 *256:10 *471:51 0.000331545
38 *316:6 *4332:A1 7.15846e-05
*RES
1 *4542:X *471:6 13.8 
2 *471:6 *471:8 4.07143 
3 *471:8 *471:12 7.35714 
4 *471:12 *4335:A2 10.2464 
5 *471:12 *4130:B 13.5857 
6 *471:8 *4332:A1 20.2464 
7 *471:6 *471:51 10.3929 
8 *471:51 *4331:A1 11.8893 
9 *471:51 *4333:B 10.6571 
10 *471:51 *4330:A1 9.3 
*END

*D_NET *472 0.000252281
*CONN
*I *4415:D I *D sky130_fd_sc_hd__dfxtp_1
*I *4543:X O *D sky130_fd_sc_hd__dlygate4sd3_1
*CAP
1 *4415:D 0.000113173
2 *4543:X 0.000113173
3 *4415:CLK *4415:D 2.59355e-05
*RES
1 *4543:X *4415:D 20.2295 
*END

*D_NET *473 0.00349998
*CONN
*I *4130:C_N I *D sky130_fd_sc_hd__or4bb_1
*I *4328:A1 I *D sky130_fd_sc_hd__o21ai_1
*I *4327:A I *D sky130_fd_sc_hd__and4_2
*I *4544:X O *D sky130_fd_sc_hd__dlygate4sd3_1
*CAP
1 *4130:C_N 0.000605763
2 *4328:A1 0.000195297
3 *4327:A 0.000117931
4 *4544:X 0
5 *473:6 0.00038065
6 *473:4 0.000673185
7 *4130:D_N *4130:C_N 0.000220441
8 *4327:B *4327:A 5.80706e-06
9 *4334:B *4130:C_N 5.52302e-05
10 *4334:C *4130:C_N 0.000178101
11 *4335:A3 *4327:A 0
12 *4545:A *4328:A1 5.71472e-05
13 *152:16 *4327:A 0
14 *252:12 *4327:A 0
15 *259:92 *4130:C_N 0.00054824
16 *259:92 *473:6 4.88637e-05
17 *259:106 *4328:A1 0.000273269
18 *259:106 *473:6 2.28598e-05
19 *403:10 *4130:C_N 0.000117196
*RES
1 *4544:X *473:4 9.3 
2 *473:4 *473:6 1.35714 
3 *473:6 *4327:A 20.2464 
4 *473:6 *4328:A1 13.55 
5 *473:4 *4130:C_N 32.2464 
*END

*D_NET *474 0.00112176
*CONN
*I *4329:B I *D sky130_fd_sc_hd__nor2_1
*I *4545:X O *D sky130_fd_sc_hd__dlygate4sd3_1
*CAP
1 *4329:B 0.000240248
2 *4545:X 0.000240248
3 *4282:B *4329:B 3.34366e-05
4 *152:16 *4329:B 8.87691e-05
5 *252:12 *4329:B 0.000315172
6 *259:106 *4329:B 0.000203885
*RES
1 *4545:X *4329:B 33.4393 
*END

*D_NET *475 0.000535908
*CONN
*I *4414:D I *D sky130_fd_sc_hd__dfxtp_1
*I *4546:X O *D sky130_fd_sc_hd__dlygate4sd3_1
*CAP
1 *4414:D 0.000166893
2 *4546:X 0.000166893
3 *100:20 *4414:D 9.25014e-06
4 *144:138 *4414:D 0.000192872
5 *252:12 *4414:D 0
*RES
1 *4546:X *4414:D 30.7473 
*END

*D_NET *476 0.00342753
*CONN
*I *4197:A1 I *D sky130_fd_sc_hd__o211a_1
*I *4214:A1 I *D sky130_fd_sc_hd__o211a_1
*I *4215:A I *D sky130_fd_sc_hd__or2_1
*I *4547:X O *D sky130_fd_sc_hd__dlygate4sd3_1
*CAP
1 *4197:A1 0.000514405
2 *4214:A1 9.31642e-05
3 *4215:A 0
4 *4547:X 0.000110296
5 *476:16 0.000483068
6 *476:10 0.0010146
7 *4193:A1 *4197:A1 0.00040765
8 *4193:A2 *4197:A1 1.74352e-05
9 *4193:B1 *4197:A1 0.000137427
10 *4195:B1 *4197:A1 4.72917e-05
11 *4216:C1 *4214:A1 0.000140933
12 *4360:D *4197:A1 3.99614e-06
13 *4368:D *476:16 8.42801e-05
14 *4547:A *4197:A1 5.52302e-05
15 *4547:A *476:10 0
16 *177:72 *4214:A1 0.000277118
17 *177:72 *476:16 3.48705e-05
18 *362:192 *4197:A1 5.7661e-06
*RES
1 *4547:X *476:10 19.6393 
2 *476:10 *476:16 5.08929 
3 *476:16 *4215:A 9.3 
4 *476:16 *4214:A1 12.3179 
5 *476:10 *4197:A1 19.3 
*END

*D_NET *477 0.000192066
*CONN
*I *4367:D I *D sky130_fd_sc_hd__dfxtp_1
*I *4548:X O *D sky130_fd_sc_hd__dlygate4sd3_1
*CAP
1 *4367:D 9.33676e-05
2 *4548:X 9.33676e-05
3 *4140:C *4367:D 0
4 *4376:CLK *4367:D 5.33091e-06
5 *4463:A *4367:D 0
*RES
1 *4548:X *4367:D 29.1045 
*END

*D_NET *478 0.00586486
*CONN
*I *4567:A I *D sky130_fd_sc_hd__dlygate4sd3_1
*I *4614:A I *D sky130_fd_sc_hd__buf_2
*I *4346:Q O *D sky130_fd_sc_hd__dfxtp_1
*CAP
1 *4567:A 0.000339805
2 *4614:A 0.000986643
3 *4346:Q 0.000207898
4 *478:6 0.00153435
5 *4567:A *4160:A1 3.75248e-05
6 *4567:A *4160:B1 0.00033644
7 *4614:A *4176:A1 5.49544e-05
8 *4614:A *4346:D 5.95099e-05
9 *4614:A *4353:D 1.76204e-05
10 led[3] *4614:A 0.000308595
11 *572:DIODE *4567:A 6.8646e-06
12 *4155:B *4567:A 0.000122133
13 *4156:C1 *4567:A 0.000247288
14 *4160:C1 *4567:A 0.000408699
15 *4163:B1 *4614:A 9.8621e-05
16 *4164:B1 *4614:A 4.52413e-05
17 *4164:B1 *478:6 2.09915e-05
18 *4176:S *4614:A 1.98839e-05
19 *4575:A *4614:A 0.000132231
20 *4584:A *4567:A 1.01912e-05
21 *134:107 *4567:A 0
22 *153:34 *4614:A 2.95726e-05
23 *153:55 *4614:A 4.43915e-05
24 *267:65 *4614:A 0.000488483
25 *267:72 *4614:A 0.000152928
26 *339:18 *4567:A 5.58875e-06
27 *346:10 *4614:A 4.13122e-06
28 *362:10 *4567:A 0.000126439
29 *373:12 *4567:A 1.78447e-05
*RES
1 *4346:Q *478:6 11.8893 
2 *478:6 *4614:A 36.9429 
3 *478:6 *4567:A 29.6571 
*END

*D_NET *479 0.00477332
*CONN
*I *4196:B I *D sky130_fd_sc_hd__or2_1
*I *4158:A1 I *D sky130_fd_sc_hd__o211a_1
*I *4178:A1 I *D sky130_fd_sc_hd__o211a_1
*I *4549:X O *D sky130_fd_sc_hd__dlygate4sd3_1
*CAP
1 *4196:B 4.31276e-05
2 *4158:A1 0.000494519
3 *4178:A1 0.000633573
4 *4549:X 0.000381188
5 *479:12 0.0012251
6 *479:10 0.000521325
7 *479:10 *4195:A1 0.000139215
8 *537:DIODE *4158:A1 0.00011398
9 *571:DIODE *4178:A1 2.61337e-05
10 *4153:A2 *4158:A1 0.000187275
11 *4158:C1 *4158:A1 5.33005e-05
12 *4177:A *4178:A1 3.99959e-05
13 *4178:C1 *4178:A1 2.4806e-05
14 *4194:A *4196:B 9.71197e-05
15 *4195:A2 *479:10 0.000110697
16 *4195:C1 *479:10 0.000290271
17 *4561:A *4158:A1 1.98839e-05
18 *4573:A *4178:A1 1.34548e-05
19 *100:263 *4158:A1 2.84026e-05
20 *259:64 *4178:A1 9.54225e-05
21 *301:8 *479:10 1.81805e-05
22 *301:8 *479:12 1.76039e-05
23 *301:27 *4178:A1 0.000120645
24 *301:27 *479:12 7.80929e-05
25 *362:170 *4178:A1 0
*RES
1 *4549:X *479:10 21.5857 
2 *479:10 *479:12 2.25 
3 *479:12 *4178:A1 26.1393 
4 *479:12 *4158:A1 22.7107 
5 *479:10 *4196:B 14.7464 
*END

*D_NET *480 0.00550131
*CONN
*I *4250:B1 I *D sky130_fd_sc_hd__a21o_1
*I *4114:C_N I *D sky130_fd_sc_hd__or4bb_1
*I *4109:B I *D sky130_fd_sc_hd__nand2_1
*I *4105:A I *D sky130_fd_sc_hd__and2_1
*I *4106:B I *D sky130_fd_sc_hd__nand4b_1
*I *4550:X O *D sky130_fd_sc_hd__dlygate4sd3_1
*CAP
1 *4250:B1 0.000348244
2 *4114:C_N 0.000231741
3 *4109:B 7.11261e-06
4 *4105:A 3.00142e-05
5 *4106:B 0.000458812
6 *4550:X 0
7 *480:32 0.000546107
8 *480:8 0.000757685
9 *480:6 0.000638677
10 *480:4 0.000410807
11 *4105:A *4105:B 3.57366e-05
12 *4250:B1 *4105:B 0.000342688
13 *480:6 *4105:B 8.76257e-05
14 *480:8 *4105:B 0.000357945
15 *4108:A *4114:C_N 0.00035013
16 *4109:A *480:32 0
17 *4111:A *480:32 0.000112439
18 *4111:D_N *480:32 6.8646e-06
19 *4113:C *4114:C_N 0
20 *4113:C *480:32 0
21 *4114:D_N *4114:C_N 5.52238e-05
22 *4116:C_N *480:32 0
23 *4118:B *4114:C_N 1.98839e-05
24 *4118:C *4114:C_N 0.000164994
25 *4118:C *480:32 0.00015508
26 *4118:D *4114:C_N 0.000172735
27 *4121:A *4114:C_N 0.000125717
28 *103:12 *4114:C_N 3.17148e-05
29 *134:24 *4114:C_N 0
30 *134:24 *480:32 0
31 *260:20 *4106:B 5.33334e-05
32 *282:19 *4106:B 0
33 *284:36 *4106:B 0
*RES
1 *4550:X *480:4 9.3 
2 *480:4 *480:6 0.946429 
3 *480:6 *480:8 3.82143 
4 *480:8 *4106:B 23.8714 
5 *480:8 *4105:A 10.0321 
6 *480:6 *480:32 10.8482 
7 *480:32 *4109:B 14.0768 
8 *480:32 *4114:C_N 20.8625 
9 *480:4 *4250:B1 14.2643 
*END

*D_NET *481 0.000741332
*CONN
*I *4108:C I *D sky130_fd_sc_hd__or4_2
*I *4551:X O *D sky130_fd_sc_hd__dlygate4sd3_1
*CAP
1 *4108:C 0.000217504
2 *4551:X 0.000217504
3 *4108:D *4108:C 6.09572e-05
4 *4121:C *4108:C 0.000227931
5 *4121:D *4108:C 1.74352e-05
*RES
1 *4551:X *4108:C 31.4214 
*END

*D_NET *482 0.00181499
*CONN
*I *4241:A2 I *D sky130_fd_sc_hd__o211a_1
*I *4553:X O *D sky130_fd_sc_hd__dlygate4sd3_1
*CAP
1 *4241:A2 0.000469905
2 *4553:X 0.000469905
3 *4135:A1 *4241:A2 0.000573169
4 *4240:A *4241:A2 9.71197e-05
5 *4241:B1 *4241:A2 4.22908e-05
6 *122:8 *4241:A2 1.39726e-05
7 *263:18 *4241:A2 4.78056e-05
8 *373:231 *4241:A2 0.000100823
*RES
1 *4553:X *4241:A2 35.7786 
*END

*D_NET *483 0.000507332
*CONN
*I *4378:D I *D sky130_fd_sc_hd__dfxtp_1
*I *4554:X O *D sky130_fd_sc_hd__dlygate4sd3_1
*CAP
1 *4378:D 0.000116934
2 *4554:X 0.000116934
3 *4373:CLK *4378:D 0.000103323
4 *122:12 *4378:D 6.48957e-05
5 *373:216 *4378:D 0.000105246
6 *450:21 *4378:D 0
*RES
1 *4554:X *4378:D 30.8366 
*END

*D_NET *484 0.00242955
*CONN
*I *4184:A1 I *D sky130_fd_sc_hd__o211a_1
*I *4555:X O *D sky130_fd_sc_hd__dlygate4sd3_1
*CAP
1 *4184:A1 0.000638848
2 *4555:X 0.000638848
3 *4184:A1 *4355:D 3.57163e-05
4 *4200:B *4184:A1 0.000271352
5 *4201:A1 *4184:A1 0
6 *4535:A *4184:A1 0
7 *4556:A *4184:A1 0.00040765
8 *4572:A *4184:A1 0.000230482
9 *267:14 *4184:A1 0
10 *373:355 *4184:A1 0.000105696
11 *460:156 *4184:A1 0.00010096
*RES
1 *4555:X *4184:A1 41.0821 
*END

*D_NET *485 0.000384241
*CONN
*I *4355:D I *D sky130_fd_sc_hd__dfxtp_1
*I *4556:X O *D sky130_fd_sc_hd__dlygate4sd3_1
*CAP
1 *4355:D 7.95302e-05
2 *4556:X 7.95302e-05
3 *4184:A1 *4355:D 3.57163e-05
4 *4572:A *4355:D 8.6197e-05
5 *267:14 *4355:D 0.000103267
*RES
1 *4556:X *4355:D 29.7473 
*END

*D_NET *486 0.00344875
*CONN
*I *4222:A1 I *D sky130_fd_sc_hd__o211a_1
*I *4205:A1 I *D sky130_fd_sc_hd__o211a_1
*I *4557:X O *D sky130_fd_sc_hd__dlygate4sd3_1
*CAP
1 *4222:A1 0.000420691
2 *4205:A1 0.000314306
3 *4557:X 0.000137053
4 *486:6 0.00087205
5 *555:DIODE *4205:A1 0
6 *4205:B1 *4205:A1 0.00011992
7 *4222:C1 *4222:A1 0
8 *97:45 *4205:A1 0.000181796
9 *97:45 *486:6 0.000230482
10 *177:96 *4222:A1 5.71619e-05
11 *177:100 *4222:A1 0.00015134
12 *266:22 *4205:A1 0.00011389
13 *266:22 *4222:A1 0.000439656
14 *266:66 *4222:A1 0.000219464
15 *266:79 *4222:A1 0.000173097
16 *373:192 *4205:A1 1.78465e-05
*RES
1 *4557:X *486:6 11.4786 
2 *486:6 *4205:A1 24.4429 
3 *486:6 *4222:A1 28.7464 
*END

*D_NET *487 0.000255779
*CONN
*I *4364:D I *D sky130_fd_sc_hd__dfxtp_1
*I *4558:X O *D sky130_fd_sc_hd__dlygate4sd3_1
*CAP
1 *4364:D 0.000116166
2 *4558:X 0.000116166
3 *4189:A1 *4364:D 0
4 *133:42 *4364:D 7.01199e-06
5 *266:33 *4364:D 1.64343e-05
6 *266:46 *4364:D 0
*RES
1 *4558:X *4364:D 29.408 
*END

*D_NET *488 0.0115058
*CONN
*I *4232:C I *D sky130_fd_sc_hd__and4_1
*I *4209:A I *D sky130_fd_sc_hd__nand2_2
*I *4142:A I *D sky130_fd_sc_hd__and3_1
*I *4243:C I *D sky130_fd_sc_hd__or4_1
*I *4152:A1 I *D sky130_fd_sc_hd__a32o_1
*I *4242:A2 I *D sky130_fd_sc_hd__o31a_1
*I *4245:A2 I *D sky130_fd_sc_hd__o311a_2
*I *4231:A2 I *D sky130_fd_sc_hd__a31o_1
*I *4208:A I *D sky130_fd_sc_hd__and2_2
*I *4134:A I *D sky130_fd_sc_hd__or3_1
*I *4136:A I *D sky130_fd_sc_hd__or4_4
*I *4559:X O *D sky130_fd_sc_hd__dlygate4sd3_1
*CAP
1 *4232:C 0.000238055
2 *4209:A 0
3 *4142:A 0
4 *4243:C 2.23854e-05
5 *4152:A1 0.000132841
6 *4242:A2 6.6386e-05
7 *4245:A2 0.000463305
8 *4231:A2 0
9 *4208:A 5.53377e-05
10 *4134:A 0
11 *4136:A 8.68238e-05
12 *4559:X 0
13 *488:121 0.000282659
14 *488:85 0.000225286
15 *488:70 0.000608402
16 *488:66 0.000483362
17 *488:56 0.000521806
18 *488:47 0.000434229
19 *488:20 0.000424596
20 *488:12 0.000495843
21 *488:8 0.000433831
22 *488:4 0.000121339
23 *530:DIODE *488:56 5.23057e-05
24 *567:DIODE *488:66 5.33005e-05
25 *4097:A *488:20 5.33005e-05
26 *4099:A *488:56 2.44318e-05
27 *4099:A *488:66 2.89114e-05
28 *4134:B *4136:A 2.9212e-05
29 *4136:C *4136:A 0.000201651
30 *4145:A2 *4136:A 0.000183713
31 *4152:B1 *4152:A1 9.99989e-05
32 *4152:B1 *4245:A2 0.000204001
33 *4152:B1 *488:85 2.94103e-05
34 *4208:B *488:12 0
35 *4208:B *488:47 0
36 *4209:B *488:121 5.7661e-06
37 *4227:A *488:47 0
38 *4227:B *488:47 0
39 *4227:C *488:12 9.24491e-05
40 *4227:C *488:47 7.252e-05
41 *4231:A3 *488:47 1.92789e-05
42 *4231:A3 *488:56 3.57366e-05
43 *4231:B1 *488:66 0
44 *4232:D *4232:C 6.91157e-05
45 *4233:C *488:56 0
46 *4242:A3 *4245:A2 0.000172528
47 *4242:A3 *488:85 1.31516e-05
48 *4243:A *4242:A2 2.58821e-05
49 *4243:A *488:70 0.000351169
50 *4243:D *488:66 9.71197e-05
51 *4244:B *4242:A2 0.00014285
52 *4244:B *488:70 8.87178e-05
53 *4245:A3 *4245:A2 0.000219818
54 *4375:CLK *488:66 0.000184797
55 *4375:CLK *488:70 5.17614e-05
56 *4375:D *488:47 8.06331e-05
57 *4380:D *4245:A2 5.52302e-05
58 *4397:D *4152:A1 0
59 *4440:A *488:20 2.89114e-05
60 *4559:A *488:47 7.85979e-05
61 *4595:A *4245:A2 2.47833e-05
62 *122:54 *488:8 9.92409e-05
63 *122:67 *488:8 0.000145019
64 *122:67 *488:121 5.62995e-05
65 *122:80 *4232:C 0.000720896
66 *122:80 *488:121 4.14279e-05
67 *131:12 *488:20 4.46186e-06
68 *131:14 *4136:A 4.08637e-05
69 *134:64 *4136:A 1.74352e-05
70 *151:10 *488:66 0.000139069
71 *177:27 *4232:C 2.61337e-05
72 *177:46 *4232:C 3.34783e-05
73 *259:160 *488:20 4.038e-06
74 *266:79 *4232:C 1.08359e-05
75 *290:16 *4232:C 0.000166485
76 *290:16 *488:8 0.000446603
77 *290:16 *488:121 0.000175251
78 *356:27 *4245:A2 2.94103e-05
79 *356:49 *4136:A 5.71472e-05
80 *366:12 *488:56 0.000232399
81 *366:12 *488:66 5.52302e-05
82 *373:257 *4136:A 2.28598e-05
83 *373:257 *488:20 0.000175512
84 *373:270 *488:66 0.000171375
85 *379:10 *4232:C 5.41794e-05
86 *379:32 *4232:C 0.000338344
87 *432:21 *4242:A2 5.33334e-05
88 *460:12 *488:20 0.000177227
89 *460:25 *488:20 1.17968e-05
90 *460:42 *488:47 0
91 *460:44 *488:70 7.49387e-06
92 *460:50 *4242:A2 2.44318e-05
*RES
1 *4559:X *488:4 9.3 
2 *488:4 *488:8 8.73214 
3 *488:8 *488:12 6.75 
4 *488:12 *488:20 15.7857 
5 *488:20 *4136:A 12.7286 
6 *488:20 *4134:A 9.3 
7 *488:12 *4208:A 10.2464 
8 *488:8 *488:47 10.4286 
9 *488:47 *4231:A2 9.3 
10 *488:47 *488:56 4.55357 
11 *488:56 *488:66 17.2321 
12 *488:66 *488:70 8.32143 
13 *488:70 *4245:A2 24.2643 
14 *488:70 *488:85 0.732143 
15 *488:85 *4242:A2 15.9964 
16 *488:85 *4152:A1 16.3536 
17 *488:66 *4243:C 9.72857 
18 *488:56 *4142:A 9.3 
19 *488:4 *488:121 2.19643 
20 *488:121 *4209:A 9.3 
21 *488:121 *4232:C 27.8 
*END

*D_NET *489 0.00234768
*CONN
*I *4615:A I *D sky130_fd_sc_hd__buf_2
*I *4552:A I *D sky130_fd_sc_hd__dlygate4sd3_1
*I *4347:Q O *D sky130_fd_sc_hd__dfxtp_1
*CAP
1 *4615:A 0.000784657
2 *4552:A 0
3 *4347:Q 0.000183379
4 *489:8 0.000968036
5 led[2] *4615:A 0
6 led[5] *489:8 1.57885e-05
7 *4345:CLK *4615:A 0
8 *4348:D *4615:A 0
9 *4541:A *4615:A 5.26091e-05
10 *4565:A *4615:A 0
11 *4585:A *4615:A 0.00034321
12 *4613:A *4615:A 0
13 *133:147 *4615:A 0
14 *467:8 *4615:A 0
*RES
1 *4347:Q *489:8 11.8 
2 *489:8 *4552:A 9.3 
3 *489:8 *4615:A 32.0857 
*END

*D_NET *490 0.00317441
*CONN
*I *4195:A1 I *D sky130_fd_sc_hd__o211a_1
*I *4212:A1 I *D sky130_fd_sc_hd__o211a_1
*I *4560:X O *D sky130_fd_sc_hd__dlygate4sd3_1
*CAP
1 *4195:A1 0.000706291
2 *4212:A1 0.000137557
3 *4560:X 0.000220467
4 *490:10 0.00106431
5 *4195:A2 *4195:A1 0.000239448
6 *4195:B1 *4195:A1 0.000195677
7 *4210:A *490:10 0
8 *4358:CLK *4195:A1 0.000184643
9 *4358:D *4195:A1 0.000236685
10 *4366:CLK *490:10 0
11 *4366:D *490:10 5.01117e-05
12 *4560:A *490:10 0
13 *479:10 *4195:A1 0.000139215
*RES
1 *4560:X *490:10 22.3714 
2 *490:10 *4212:A1 11.4786 
3 *490:10 *4195:A1 25.4786 
*END

*D_NET *491 0.00692966
*CONN
*I *4198:B I *D sky130_fd_sc_hd__or2_1
*I *4181:A1 I *D sky130_fd_sc_hd__o211a_1
*I *4160:A1 I *D sky130_fd_sc_hd__o211a_1
*I *4561:X O *D sky130_fd_sc_hd__dlygate4sd3_1
*CAP
1 *4198:B 2.23854e-05
2 *4181:A1 0
3 *4160:A1 0.00183048
4 *4561:X 0.000147455
5 *491:12 0.0022921
6 *491:6 0.000631463
7 *4160:A1 *4160:B1 4.6025e-06
8 *4160:A1 *4346:D 2.22631e-05
9 led[3] *4160:A1 0.000374286
10 led[5] *4160:A1 0
11 *537:DIODE *491:6 5.49544e-05
12 *4164:B1 *4160:A1 0
13 *4177:A *4160:A1 2.83284e-06
14 *4178:A2 *4160:A1 0.000130904
15 *4567:A *4160:A1 3.75248e-05
16 *97:77 *491:12 0.000342677
17 *134:107 *4160:A1 0
18 *339:18 *4160:A1 0
19 *362:145 *4160:A1 2.6726e-05
20 *362:145 *491:12 4.2802e-05
21 *362:164 *491:12 0.000149662
22 *362:170 *491:12 0.000334514
23 *373:343 *4160:A1 0.00020692
24 *373:343 *491:12 4.75762e-05
25 *460:179 *491:12 0.00018372
26 *460:192 *491:12 4.38128e-05
*RES
1 *4561:X *491:6 11.0679 
2 *491:6 *491:12 16.3214 
3 *491:12 *4160:A1 30.7097 
4 *491:12 *4181:A1 13.8 
5 *491:6 *4198:B 9.72857 
*END

*D_NET *492 0.00184668
*CONN
*I *4157:A I *D sky130_fd_sc_hd__or2_1
*I *4562:X O *D sky130_fd_sc_hd__dlygate4sd3_1
*CAP
1 *4157:A 0.000450592
2 *4562:X 0.000450592
3 *4154:B1_N *4157:A 3.98559e-05
4 *4562:A *4157:A 0.000265453
5 *4564:A *4157:A 0.000584962
6 *134:81 *4157:A 5.52238e-05
*RES
1 *4562:X *4157:A 28.0821 
*END

*D_NET *493 0.000465979
*CONN
*I *4158:B1 I *D sky130_fd_sc_hd__o211a_1
*I *4564:X O *D sky130_fd_sc_hd__dlygate4sd3_1
*CAP
1 *4158:B1 7.72241e-05
2 *4564:X 7.72241e-05
3 *4153:A2 *4158:B1 5.52238e-05
4 *4158:C1 *4158:B1 0.000128154
5 *134:207 *4158:B1 0.000128154
*RES
1 *4564:X *4158:B1 29.7786 
*END

*D_NET *494 0.000479241
*CONN
*I *4345:D I *D sky130_fd_sc_hd__dfxtp_1
*I *4565:X O *D sky130_fd_sc_hd__dlygate4sd3_1
*CAP
1 *4345:D 0.000123212
2 *4565:X 0.000123212
3 *4154:A1 *4345:D 0.000175519
4 *4345:CLK *4345:D 5.7298e-05
5 *4585:A *4345:D 0
*RES
1 *4565:X *4345:D 30.4259 
*END

*D_NET *495 0.00851131
*CONN
*I *4194:B I *D sky130_fd_sc_hd__or2_1
*I *4156:A1 I *D sky130_fd_sc_hd__o211a_1
*I *4175:A1 I *D sky130_fd_sc_hd__o211a_1
*I *4566:X O *D sky130_fd_sc_hd__dlygate4sd3_1
*CAP
1 *4194:B 0.000298466
2 *4156:A1 0.000534853
3 *4175:A1 7.5505e-05
4 *4566:X 0.000267331
5 *495:12 0.00168462
6 *495:10 0.00164006
7 *4156:A1 *4156:B1 0.000607128
8 *495:12 *4177:B 0.000474005
9 *495:12 *4353:D 8.91726e-05
10 *539:DIODE *495:12 4.97918e-05
11 *4154:B1_N *495:12 0.000125731
12 *4156:A2 *4156:A1 4.51611e-05
13 *4158:C1 *495:12 0.000430646
14 *4161:A1 *495:12 0
15 *4175:B1 *4175:A1 7.67687e-05
16 *4175:B1 *495:12 4.39757e-05
17 *4337:B2 *4156:A1 0.000355229
18 *4338:B *4156:A1 3.6572e-05
19 *4347:D *495:12 4.2453e-05
20 *4352:D *495:12 0
21 *4359:CLK *4194:B 5.52238e-05
22 *4359:D *4194:B 0.000139552
23 *4359:D *495:10 0
24 *4418:D *4156:A1 5.86416e-05
25 *4451:A *4156:A1 6.87574e-05
26 *4549:A *495:10 6.81872e-05
27 *4565:A *495:12 0
28 *4566:A *495:10 0
29 *4575:A *495:12 0
30 *4577:A *495:12 6.42242e-05
31 *4583:A *4175:A1 5.47783e-05
32 *4586:A *4156:A1 0.000353079
33 *4599:A *495:12 0.000435505
34 *4600:A *495:12 4.25716e-05
35 *100:193 *4156:A1 0
36 *100:206 *4156:A1 0
37 *100:206 *495:12 0
38 *100:263 *495:12 0.000238272
39 *133:114 *495:12 0
40 *133:134 *495:12 0
41 *267:59 *495:12 0
42 *267:65 *495:12 0
43 *267:101 *495:12 0
44 *267:116 *495:10 0
45 *335:55 *4156:A1 3.38518e-05
46 *362:35 *4175:A1 2.12005e-05
47 *362:47 *4156:A1 0
*RES
1 *4566:X *495:10 18.4071 
2 *495:10 *495:12 26.6875 
3 *495:12 *4175:A1 15.8625 
4 *495:12 *4156:A1 27.7732 
5 *495:10 *4194:B 19.4071 
*END

*D_NET *496 0.0012007
*CONN
*I *4159:A I *D sky130_fd_sc_hd__or2_1
*I *4567:X O *D sky130_fd_sc_hd__dlygate4sd3_1
*CAP
1 *4159:A 0.000244968
2 *4567:X 0.000244968
3 led[1] *4159:A 0.000406652
4 *4155:B *4159:A 0.000225749
5 *4612:A *4159:A 7.83587e-05
*RES
1 *4567:X *4159:A 34.7429 
*END

*D_NET *497 0.000931233
*CONN
*I *4160:B1 I *D sky130_fd_sc_hd__o211a_1
*I *4568:X O *D sky130_fd_sc_hd__dlygate4sd3_1
*CAP
1 *4160:B1 0.000203724
2 *4568:X 0.000203724
3 *4160:B1 *4346:D 0
4 *4160:A1 *4160:B1 4.6025e-06
5 *4160:A2 *4160:B1 1.00733e-05
6 *4160:C1 *4160:B1 1.58163e-05
7 *4567:A *4160:B1 0.00033644
8 *362:6 *4160:B1 3.69047e-06
9 *373:12 *4160:B1 0.000153163
*RES
1 *4568:X *4160:B1 32.6491 
*END

*D_NET *498 0.000702995
*CONN
*I *4346:D I *D sky130_fd_sc_hd__dfxtp_1
*I *4569:X O *D sky130_fd_sc_hd__dlygate4sd3_1
*CAP
1 *4346:D 0.000171426
2 *4569:X 0.000171426
3 led[3] *4346:D 9.91086e-05
4 *4160:A1 *4346:D 2.22631e-05
5 *4160:B1 *4346:D 0
6 *4164:B1 *4346:D 1.53273e-05
7 *4569:A *4346:D 8.00806e-05
8 *4614:A *4346:D 5.95099e-05
9 *100:206 *4346:D 0
10 *339:18 *4346:D 2.81598e-05
11 *373:12 *4346:D 5.56943e-05
*RES
1 *4569:X *4346:D 31.9438 
*END

*D_NET *499 0.002169
*CONN
*I *4176:A0 I *D sky130_fd_sc_hd__mux2_1
*I *4179:A1 I *D sky130_fd_sc_hd__mux2_1
*I *4570:X O *D sky130_fd_sc_hd__dlygate4sd3_1
*CAP
1 *4176:A0 6.37776e-05
2 *4179:A1 0.00031897
3 *4570:X 0.000254854
4 *499:12 0.000637601
5 led[3] *4176:A0 8.67797e-05
6 led[3] *4179:A1 0.000200395
7 *133:93 *499:12 0.000125731
8 *133:108 *499:12 0.000293269
9 *142:32 *4179:A1 0.000184745
10 *153:34 *4179:A1 2.88018e-06
*RES
1 *4570:X *499:12 23.1214 
2 *499:12 *4179:A1 13.5321 
3 *499:12 *4176:A0 10.2464 
*END

*D_NET *500 0.002248
*CONN
*I *4530:A I *D sky130_fd_sc_hd__dlygate4sd3_1
*I *4616:A I *D sky130_fd_sc_hd__buf_2
*I *4348:Q O *D sky130_fd_sc_hd__dfxtp_1
*CAP
1 *4530:A 5.75177e-05
2 *4616:A 0.000143083
3 *4348:Q 0.000208743
4 *500:10 0.000409344
5 led[5] *4616:A 0.000104761
6 *4158:C1 *4530:A 6.8646e-06
7 *4161:A1 *4530:A 3.17148e-05
8 *4161:A1 *4616:A 0.000485071
9 *4161:A1 *500:10 0.000173797
10 *4347:CLK *4616:A 3.08664e-05
11 *4347:D *4616:A 1.64343e-05
12 *4578:A *500:10 0.000226507
13 *100:263 *4530:A 0.000114759
14 *100:263 *500:10 0.000175512
15 *133:147 *4530:A 6.30292e-05
*RES
1 *4348:Q *500:10 18.2286 
2 *500:10 *4616:A 18.8714 
3 *500:10 *4530:A 15.7464 
*END

*D_NET *501 0.000822977
*CONN
*I *4180:B I *D sky130_fd_sc_hd__or2_1
*I *4571:X O *D sky130_fd_sc_hd__dlygate4sd3_1
*CAP
1 *4180:B 0.000211135
2 *4571:X 0.000211135
3 *4163:A1 *4180:B 9.90367e-05
4 *4179:A0 *4180:B 9.60875e-05
5 *4180:A *4180:B 0.00010061
6 *4182:S *4180:B 0
7 *143:31 *4180:B 0
8 *153:21 *4180:B 0
9 *373:60 *4180:B 0.000104974
*RES
1 *4571:X *4180:B 32.3143 
*END

*D_NET *502 0.000766271
*CONN
*I *4181:B1 I *D sky130_fd_sc_hd__o211a_1
*I *4572:X O *D sky130_fd_sc_hd__dlygate4sd3_1
*CAP
1 *4181:B1 0.000257909
2 *4572:X 0.000257909
3 *4181:C1 *4181:B1 5.1588e-05
4 *362:137 *4181:B1 7.83587e-05
5 *373:343 *4181:B1 0.000120506
*RES
1 *4572:X *4181:B1 31.4214 
*END

*D_NET *503 0.00119706
*CONN
*I *4354:D I *D sky130_fd_sc_hd__dfxtp_1
*I *4573:X O *D sky130_fd_sc_hd__dlygate4sd3_1
*CAP
1 *4354:D 0.000211267
2 *4573:X 0.000211267
3 *4163:A1 *4354:D 0.000443971
4 *4172:A1 *4354:D 0.000153054
5 *4177:A *4354:D 0.000153054
6 *4354:CLK *4354:D 2.44472e-05
*RES
1 *4573:X *4354:D 33.8187 
*END

*D_NET *504 0.00120764
*CONN
*I *4173:A0 I *D sky130_fd_sc_hd__mux2_1
*I *4176:A1 I *D sky130_fd_sc_hd__mux2_1
*I *4575:X O *D sky130_fd_sc_hd__dlygate4sd3_1
*CAP
1 *4173:A0 0.000124117
2 *4176:A1 0.000232637
3 *4575:X 0
4 *504:4 0.000356754
5 *4176:S *4176:A1 1.24368e-05
6 *4601:A *4176:A1 0.000185118
7 *4614:A *4176:A1 5.49544e-05
8 *133:93 *4173:A0 0
9 *133:93 *4176:A1 0.00012501
10 *153:55 *4176:A1 2.22871e-05
11 *346:10 *4173:A0 9.43259e-05
*RES
1 *4575:X *504:4 9.3 
2 *504:4 *4176:A1 22.2464 
3 *504:4 *4173:A0 20.8536 
*END

*D_NET *505 0.0012209
*CONN
*I *4177:B I *D sky130_fd_sc_hd__or2_1
*I *4576:X O *D sky130_fd_sc_hd__dlygate4sd3_1
*CAP
1 *4177:B 0.000307214
2 *4576:X 0.000307214
3 *4570:A *4177:B 0
4 *4575:A *4177:B 0
5 *4577:A *4177:B 9.8224e-05
6 *4578:A *4177:B 3.42426e-05
7 *267:65 *4177:B 0
8 *495:12 *4177:B 0.000474005
*RES
1 *4576:X *4177:B 34.7429 
*END

*D_NET *506 0.00116133
*CONN
*I *4178:B1 I *D sky130_fd_sc_hd__o211a_1
*I *4577:X O *D sky130_fd_sc_hd__dlygate4sd3_1
*CAP
1 *4178:B1 0.000385982
2 *4577:X 0.000385982
3 *4163:B1 *4178:B1 0.000225988
4 *4178:A2 *4178:B1 2.06178e-05
5 *4573:A *4178:B1 9.82947e-05
6 *133:108 *4178:B1 4.44686e-05
7 *267:65 *4178:B1 0
*RES
1 *4577:X *4178:B1 33.0643 
*END

*D_NET *507 0.00123431
*CONN
*I *4353:D I *D sky130_fd_sc_hd__dfxtp_1
*I *4578:X O *D sky130_fd_sc_hd__dlygate4sd3_1
*CAP
1 *4353:D 0.000418018
2 *4578:X 0.000418018
3 *4162:B1 *4353:D 4.88546e-05
4 *4163:B1 *4353:D 3.47797e-05
5 *4578:A *4353:D 7.43578e-06
6 *4614:A *4353:D 1.76204e-05
7 *133:108 *4353:D 9.71197e-05
8 *133:114 *4353:D 8.68569e-05
9 *267:65 *4353:D 1.64343e-05
10 *495:12 *4353:D 8.91726e-05
*RES
1 *4578:X *4353:D 34.2473 
*END

*D_NET *508 0.00116722
*CONN
*I *4187:A1 I *D sky130_fd_sc_hd__o211a_1
*I *4579:X O *D sky130_fd_sc_hd__dlygate4sd3_1
*CAP
1 *4187:A1 0.000346138
2 *4579:X 0.000346138
3 *4187:A1 *4356:D 0
4 *4184:C1 *4187:A1 0
5 *4187:B1 *4187:A1 7.72412e-05
6 *4203:C1 *4187:A1 2.34204e-05
7 *4284:B1 *4187:A1 8.6229e-06
8 *4363:CLK *4187:A1 0.000156663
9 *4579:A *4187:A1 0
10 *4580:A *4187:A1 4.57445e-05
11 *133:42 *4187:A1 0
12 *143:88 *4187:A1 9.54798e-06
13 *266:46 *4187:A1 0.000150632
14 *460:156 *4187:A1 3.06878e-06
*RES
1 *4579:X *4187:A1 34.9393 
*END

*D_NET *509 0.000620367
*CONN
*I *4356:D I *D sky130_fd_sc_hd__dfxtp_1
*I *4580:X O *D sky130_fd_sc_hd__dlygate4sd3_1
*CAP
1 *4356:D 0.000166109
2 *4580:X 0.000166109
3 *4163:A1 *4356:D 4.18895e-05
4 *4184:C1 *4356:D 5.33882e-05
5 *4187:A1 *4356:D 0
6 *306:24 *4356:D 0.000192872
*RES
1 *4580:X *4356:D 31.158 
*END

*D_NET *510 0.00301378
*CONN
*I *4248:A1 I *D sky130_fd_sc_hd__o21ai_1
*I *4249:A1 I *D sky130_fd_sc_hd__a21oi_1
*I *4250:A1 I *D sky130_fd_sc_hd__a21o_1
*I *4105:B I *D sky130_fd_sc_hd__and2_1
*I *4581:X O *D sky130_fd_sc_hd__dlygate4sd3_1
*CAP
1 *4248:A1 0
2 *4249:A1 0
3 *4250:A1 0
4 *4105:B 0.000195052
5 *4581:X 1.64323e-05
6 *510:20 0.000301739
7 *510:14 0.000579106
8 *510:6 0.000488851
9 *510:14 *4381:D 0
10 *4105:A *4105:B 3.57366e-05
11 *4122:B1_N *510:6 9.90431e-05
12 *4122:B1_N *510:14 9.69119e-06
13 *4249:B1 *510:14 0
14 *4250:A2 *4105:B 0.000142856
15 *4250:B1 *4105:B 0.000342688
16 *4381:CLK *510:14 0
17 *4581:A *510:6 9.90431e-05
18 *4581:A *510:14 0
19 *4582:A *510:14 2.27416e-05
20 *200:27 *510:20 0
21 *280:12 *4105:B 0.000235232
22 *480:6 *4105:B 8.76257e-05
23 *480:8 *4105:B 0.000357945
*RES
1 *4581:X *510:6 10.2464 
2 *510:6 *510:14 16.875 
3 *510:14 *510:20 10.6429 
4 *510:20 *4105:B 17.2464 
5 *510:20 *4250:A1 9.3 
6 *510:14 *4249:A1 9.3 
7 *510:6 *4248:A1 9.3 
*END

*D_NET *511 0.0060956
*CONN
*I *4617:A I *D sky130_fd_sc_hd__buf_2
*I *4596:A I *D sky130_fd_sc_hd__dlygate4sd3_1
*I *4349:Q O *D sky130_fd_sc_hd__dfxtp_1
*CAP
1 *4617:A 0.000110609
2 *4596:A 0
3 *4349:Q 0.000252115
4 *511:19 0.00274034
5 *511:10 0.00288185
6 led[6] *511:19 0
7 *4166:A1 *511:10 0
8 *4166:A2 *511:10 2.84494e-05
9 *4166:B1 *511:10 1.24368e-05
10 *4349:D *511:10 0
11 *4438:A *511:10 6.97972e-05
*RES
1 *4349:Q *511:10 18.3179 
2 *511:10 *4596:A 13.8 
3 *511:10 *511:19 48.3929 
4 *511:19 *4617:A 15.5679 
*END

*D_NET *512 0.000351202
*CONN
*I *4381:D I *D sky130_fd_sc_hd__dfxtp_1
*I *4582:X O *D sky130_fd_sc_hd__dlygate4sd3_1
*CAP
1 *4381:D 0.000152729
2 *4582:X 0.000152729
3 *4381:CLK *4381:D 4.57445e-05
4 *140:38 *4381:D 0
5 *510:14 *4381:D 0
*RES
1 *4582:X *4381:D 30.2473 
*END

*D_NET *513 0.00665859
*CONN
*I *4155:A I *D sky130_fd_sc_hd__or2_1
*I *4583:X O *D sky130_fd_sc_hd__dlygate4sd3_1
*CAP
1 *4155:A 0.00028346
2 *4583:X 0.00157869
3 *513:16 0.00186215
4 *513:16 *4156:B1 0.00108442
5 *513:16 *514:16 1.54142e-05
6 *4101:A *513:16 0.000123288
7 *4155:B *4155:A 5.33005e-05
8 *4339:D *4155:A 0.000125137
9 *4351:CLK *513:16 0.000114717
10 *4351:D *513:16 9.47456e-05
11 *4444:A *513:16 0
12 *4584:A *513:16 0.000153386
13 *134:119 *513:16 0.000126439
14 *259:42 *513:16 0.000610071
15 *265:57 *513:16 4.03318e-05
16 *265:89 *4155:A 6.05161e-06
17 *265:119 *4155:A 0.000152824
18 *265:130 *4155:A 0.0001399
19 *335:12 *513:16 5.35423e-05
20 *335:55 *513:16 4.07257e-05
*RES
1 *4583:X *513:16 49.3179 
2 *513:16 *4155:A 19.675 
*END

*D_NET *514 0.00625002
*CONN
*I *4156:B1 I *D sky130_fd_sc_hd__o211a_1
*I *4584:X O *D sky130_fd_sc_hd__dlygate4sd3_1
*CAP
1 *4156:B1 0.000484721
2 *4584:X 0.000750385
3 *514:16 0.00123511
4 *4156:B1 *4344:D 5.52302e-05
5 *572:DIODE *4156:B1 0.00010096
6 *4146:B *514:16 0.000157474
7 *4156:A1 *4156:B1 0.000607128
8 *4156:A2 *4156:B1 2.36784e-05
9 *4172:B1 *514:16 0.000265447
10 *4175:A2 *514:16 0
11 *4342:D *4156:B1 8.63855e-05
12 *4351:CLK *514:16 0
13 *4451:A *4156:B1 4.07248e-05
14 *4571:A *514:16 9.31011e-05
15 *100:117 *514:16 6.09476e-05
16 *100:123 *514:16 5.80706e-06
17 *100:174 *514:16 0.000125918
18 *100:193 *514:16 1.78353e-05
19 *142:10 *514:16 0.000473139
20 *259:42 *514:16 0.000183726
21 *259:53 *514:16 0
22 *265:51 *514:16 0.000225616
23 *360:75 *514:16 1.08032e-05
24 *362:107 *514:16 0
25 *362:117 *514:16 4.70078e-05
26 *373:60 *514:16 9.90367e-05
27 *513:16 *4156:B1 0.00108442
28 *513:16 *514:16 1.54142e-05
*RES
1 *4584:X *514:16 37.2107 
2 *514:16 *4156:B1 23.8179 
*END

*D_NET *515 0.00140697
*CONN
*I *4344:D I *D sky130_fd_sc_hd__dfxtp_1
*I *4586:X O *D sky130_fd_sc_hd__dlygate4sd3_1
*CAP
1 *4344:D 0.000289783
2 *4586:X 0.000289783
3 uart_txd *4344:D 0.000127308
4 *572:DIODE *4344:D 0
5 *4156:B1 *4344:D 5.52302e-05
6 *4583:A *4344:D 8.42801e-05
7 *12:9 *4344:D 6.5919e-05
8 *339:18 *4344:D 0.000471833
9 *362:35 *4344:D 2.28303e-05
*RES
1 *4586:X *4344:D 35.1402 
*END

*D_NET *516 0.00305507
*CONN
*I *4129:D I *D sky130_fd_sc_hd__or4_1
*I *4319:C I *D sky130_fd_sc_hd__and4_1
*I *4316:B I *D sky130_fd_sc_hd__and3_1
*I *4313:A I *D sky130_fd_sc_hd__and2_1
*I *4314:A1 I *D sky130_fd_sc_hd__o21ai_1
*I *4587:X O *D sky130_fd_sc_hd__dlygate4sd3_1
*CAP
1 *4129:D 8.76016e-05
2 *4319:C 0
3 *4316:B 0.000204464
4 *4313:A 0
5 *4314:A1 7.28216e-05
6 *4587:X 0
7 *516:45 0.000106478
8 *516:34 0.000334443
9 *516:14 0.000197127
10 *516:6 0.000235408
11 *4316:B *4319:B 3.81416e-06
12 *4129:C *4129:D 9.31353e-05
13 *4318:A *4316:B 9.90431e-05
14 *4319:D *4316:B 1.40306e-05
15 *4320:A1 *4129:D 1.17968e-05
16 *4320:A1 *516:34 6.94877e-05
17 *4320:A1 *516:45 4.23086e-05
18 *4409:CLK *516:14 0
19 *4410:CLK *4314:A1 1.5424e-05
20 *4410:CLK *516:14 0.000405727
21 *4588:A *516:14 3.92854e-05
22 *4588:A *516:34 2.49484e-05
23 *4589:A *4314:A1 0.000226507
24 *4589:A *516:14 3.4855e-05
25 *242:29 *4316:B 1.90111e-05
26 *242:48 *4129:D 1.99099e-05
27 *242:48 *516:14 0.000317003
28 *242:48 *516:34 0.000146495
29 *242:48 *516:45 4.58192e-05
30 *247:8 *4129:D 2.83916e-05
31 *247:12 *4129:D 5.52238e-05
32 *247:60 *4129:D 6.8646e-06
33 *261:46 *4314:A1 9.76491e-05
*RES
1 *4587:X *516:6 13.8 
2 *516:6 *516:14 10.3929 
3 *516:14 *4314:A1 11.9071 
4 *516:14 *4313:A 9.3 
5 *516:6 *516:34 3.21429 
6 *516:34 *4316:B 16.3893 
7 *516:34 *516:45 1.03571 
8 *516:45 *4319:C 13.8 
9 *516:45 *4129:D 16.2821 
*END

*D_NET *517 0.00127991
*CONN
*I *4315:B I *D sky130_fd_sc_hd__nor2_1
*I *4588:X O *D sky130_fd_sc_hd__dlygate4sd3_1
*CAP
1 *4315:B 0.000152708
2 *4588:X 0.000152708
3 *4314:B1 *4315:B 0.000200988
4 *4315:A *4315:B 0.000290148
5 *4317:A2 *4315:B 0.000230482
6 *4320:A1 *4315:B 0.000188586
7 *144:148 *4315:B 6.42877e-05
*RES
1 *4588:X *4315:B 33.7786 
*END

*D_NET *518 0.000548547
*CONN
*I *4409:D I *D sky130_fd_sc_hd__dfxtp_1
*I *4589:X O *D sky130_fd_sc_hd__dlygate4sd3_1
*CAP
1 *4409:D 0.000274274
2 *4589:X 0.000274274
3 *4409:CLK *4409:D 0
4 *4587:A *4409:D 0
*RES
1 *4589:X *4409:D 32.1759 
*END

*D_NET *519 0.00308435
*CONN
*I *4128:A I *D sky130_fd_sc_hd__nand2_1
*I *4319:B I *D sky130_fd_sc_hd__and4_1
*I *4316:A I *D sky130_fd_sc_hd__and3_1
*I *4317:A1 I *D sky130_fd_sc_hd__o21ai_1
*I *4590:X O *D sky130_fd_sc_hd__dlygate4sd3_1
*CAP
1 *4128:A 0.000221402
2 *4319:B 0.000305916
3 *4316:A 0
4 *4317:A1 0.000155631
5 *4590:X 0
6 *519:23 0.000366579
7 *519:19 0.000409995
8 *519:4 0.000283561
9 *4129:A *4128:A 4.46186e-06
10 *4131:C *4128:A 0.000268403
11 *4316:B *4319:B 3.81416e-06
12 *4317:A2 *4317:A1 0.000196723
13 *4319:D *4319:B 5.52238e-05
14 *4320:A2 *519:19 0
15 *4334:A *4128:A 5.35516e-05
16 *4334:A *519:19 1.37292e-05
17 *4591:A *4317:A1 0.000140933
18 *144:60 *4317:A1 0
19 *242:14 *4317:A1 9.16074e-05
20 *242:14 *519:19 0.000125724
21 *242:27 *4319:B 6.8148e-05
22 *242:27 *519:23 0.00014285
23 *242:29 *4319:B 0.0001761
24 *242:48 *519:19 0
25 *247:8 *519:19 0
26 *247:60 *4128:A 0
*RES
1 *4590:X *519:4 9.3 
2 *519:4 *4317:A1 13.8714 
3 *519:4 *519:19 6.75 
4 *519:19 *519:23 5.85714 
5 *519:23 *4316:A 9.3 
6 *519:23 *4319:B 13.55 
7 *519:19 *4128:A 18.3357 
*END

*D_NET *520 0.000266967
*CONN
*I *4318:B I *D sky130_fd_sc_hd__nor2_1
*I *4591:X O *D sky130_fd_sc_hd__dlygate4sd3_1
*CAP
1 *4318:B 8.38263e-05
2 *4591:X 8.38263e-05
3 *4318:A *4318:B 5.71472e-05
4 *4591:A *4318:B 2.44318e-05
5 *4592:A *4318:B 4.0342e-06
6 *239:20 *4318:B 1.3701e-05
*RES
1 *4591:X *4318:B 20.3857 
*END

*D_NET *521 0.000764465
*CONN
*I *4410:D I *D sky130_fd_sc_hd__dfxtp_1
*I *4592:X O *D sky130_fd_sc_hd__dlygate4sd3_1
*CAP
1 *4410:D 0.000382233
2 *4592:X 0.000382233
*RES
1 *4592:X *4410:D 24.5152 
*END
