*SPEF "ieee 1481-1999"
*DESIGN "impl_top"
*DATE "02:22:40 Monday May 11, 2026"
*VENDOR "The OpenROAD Project"
*PROGRAM "OpenROAD"
*VERSION "edf00dff99f6c40d67a30c0e22a8191c5d2ed9d6"
*DESIGN_FLOW "NAME_SCOPE LOCAL" "PIN_CAP NONE"
*DIVIDER /
*DELIMITER :
*BUS_DELIMITER []
*T_UNIT 1 NS
*C_UNIT 1 PF
*R_UNIT 1 OHM
*L_UNIT 1 HENRY

*NAME_MAP
*3 clk
*4 led[0]
*5 led[1]
*6 led[2]
*7 led[3]
*8 led[4]
*9 led[5]
*10 led[6]
*11 led[7]
*12 sw_0
*13 sw_1
*14 uart_rxd
*15 uart_txd
*16 _000_
*17 _001_
*18 _002_
*19 _003_
*20 _004_
*21 _005_
*22 _006_
*23 _007_
*24 _008_
*25 _009_
*26 _010_
*27 _011_
*28 _012_
*29 _013_
*30 _014_
*31 _015_
*32 _016_
*33 _017_
*34 _018_
*35 _019_
*36 _020_
*37 _021_
*38 _022_
*39 _023_
*40 _024_
*41 _025_
*42 _026_
*43 _027_
*44 _028_
*45 _029_
*46 _030_
*47 _031_
*48 _032_
*49 _033_
*50 _034_
*51 _035_
*52 _036_
*53 _037_
*54 _038_
*55 _039_
*56 _040_
*57 _041_
*58 _042_
*59 _043_
*60 _044_
*61 _045_
*62 _046_
*63 _047_
*64 _048_
*65 _049_
*66 _050_
*67 _051_
*68 _052_
*69 _053_
*70 _054_
*71 _055_
*72 _056_
*73 _057_
*74 _058_
*75 _059_
*76 _060_
*77 _061_
*78 _062_
*79 _063_
*80 _064_
*81 _065_
*82 _066_
*83 _067_
*84 _068_
*85 _069_
*86 _070_
*87 _071_
*88 _072_
*89 _073_
*90 _074_
*91 _075_
*92 _076_
*93 _077_
*94 _078_
*95 _079_
*96 _080_
*97 _081_
*98 _082_
*99 _083_
*100 _084_
*101 _085_
*102 _086_
*103 _087_
*104 _088_
*105 _089_
*106 _090_
*107 _091_
*108 _092_
*109 _093_
*110 _094_
*111 _095_
*112 _096_
*113 _097_
*114 _098_
*115 _099_
*116 _100_
*117 _101_
*118 _102_
*119 _103_
*120 _104_
*121 _105_
*122 _106_
*123 _107_
*124 _108_
*125 _109_
*126 _110_
*127 _111_
*128 _112_
*129 _113_
*130 _114_
*131 _115_
*132 _116_
*133 _117_
*134 _118_
*135 _119_
*136 _120_
*137 _121_
*138 _122_
*139 _123_
*140 _124_
*141 _125_
*142 _126_
*143 _127_
*144 _128_
*145 _129_
*146 _130_
*147 _131_
*148 _132_
*149 _133_
*150 _134_
*151 _135_
*152 _136_
*153 _137_
*154 _138_
*155 _139_
*156 _140_
*157 _141_
*158 _142_
*159 _143_
*160 _144_
*161 _145_
*162 _146_
*163 _147_
*164 _148_
*165 _149_
*166 _150_
*167 _151_
*168 _152_
*169 _153_
*170 _154_
*171 _155_
*172 _156_
*173 _157_
*174 _158_
*175 _159_
*176 _160_
*177 _161_
*178 _162_
*179 _163_
*180 _164_
*181 _165_
*182 _166_
*183 _167_
*184 _168_
*185 _169_
*186 _170_
*187 _171_
*188 _172_
*189 _173_
*190 _174_
*191 _175_
*192 _176_
*193 _177_
*194 _178_
*195 _179_
*196 _180_
*197 _181_
*198 _182_
*199 _183_
*200 _184_
*201 _185_
*202 _186_
*203 _187_
*204 _188_
*205 _189_
*206 _190_
*207 _191_
*208 _192_
*209 _193_
*210 _194_
*211 _195_
*212 _196_
*213 _197_
*214 _198_
*215 _199_
*216 _200_
*217 _201_
*218 _202_
*219 _203_
*220 _204_
*221 _205_
*222 _206_
*223 _207_
*224 _208_
*225 _209_
*226 _210_
*227 _211_
*228 _212_
*229 _213_
*230 _214_
*231 _215_
*232 _216_
*233 _217_
*234 _218_
*235 _219_
*236 _220_
*237 _221_
*238 _222_
*239 _223_
*240 _224_
*241 _225_
*242 _226_
*243 _227_
*244 _228_
*245 _229_
*246 _230_
*247 _231_
*248 _232_
*249 _233_
*250 _234_
*251 _235_
*252 _236_
*253 _237_
*254 _238_
*255 _239_
*256 _240_
*257 _241_
*258 _242_
*259 clknet_0_clk
*260 clknet_3_0__leaf_clk
*261 clknet_3_1__leaf_clk
*262 clknet_3_2__leaf_clk
*263 clknet_3_3__leaf_clk
*264 clknet_3_4__leaf_clk
*265 clknet_3_5__leaf_clk
*266 clknet_3_6__leaf_clk
*267 clknet_3_7__leaf_clk
*268 i_uart_rx\.bit_counter\[0\]
*269 i_uart_rx\.bit_counter\[1\]
*270 i_uart_rx\.bit_counter\[2\]
*271 i_uart_rx\.bit_counter\[3\]
*272 i_uart_rx\.bit_sample
*273 i_uart_rx\.cycle_counter\[0\]
*274 i_uart_rx\.cycle_counter\[10\]
*275 i_uart_rx\.cycle_counter\[11\]
*276 i_uart_rx\.cycle_counter\[12\]
*277 i_uart_rx\.cycle_counter\[13\]
*278 i_uart_rx\.cycle_counter\[1\]
*279 i_uart_rx\.cycle_counter\[2\]
*280 i_uart_rx\.cycle_counter\[3\]
*281 i_uart_rx\.cycle_counter\[4\]
*282 i_uart_rx\.cycle_counter\[5\]
*283 i_uart_rx\.cycle_counter\[6\]
*284 i_uart_rx\.cycle_counter\[7\]
*285 i_uart_rx\.cycle_counter\[8\]
*286 i_uart_rx\.cycle_counter\[9\]
*287 i_uart_rx\.fsm_state\[0\]
*288 i_uart_rx\.fsm_state\[1\]
*289 i_uart_rx\.fsm_state\[2\]
*290 i_uart_rx\.fsm_state\[3\]
*291 i_uart_rx\.recieved_data\[0\]
*292 i_uart_rx\.recieved_data\[1\]
*293 i_uart_rx\.recieved_data\[2\]
*294 i_uart_rx\.recieved_data\[3\]
*295 i_uart_rx\.recieved_data\[4\]
*296 i_uart_rx\.recieved_data\[5\]
*297 i_uart_rx\.recieved_data\[6\]
*298 i_uart_rx\.recieved_data\[7\]
*299 i_uart_rx\.rxd_reg
*300 i_uart_rx\.rxd_reg_0
*301 i_uart_rx\.uart_rx_data\[0\]
*302 i_uart_rx\.uart_rx_data\[1\]
*303 i_uart_rx\.uart_rx_data\[2\]
*304 i_uart_rx\.uart_rx_data\[3\]
*305 i_uart_rx\.uart_rx_data\[4\]
*306 i_uart_rx\.uart_rx_data\[5\]
*307 i_uart_rx\.uart_rx_data\[6\]
*308 i_uart_rx\.uart_rx_data\[7\]
*309 i_uart_tx\.bit_counter\[0\]
*310 i_uart_tx\.bit_counter\[1\]
*311 i_uart_tx\.bit_counter\[2\]
*312 i_uart_tx\.bit_counter\[3\]
*313 i_uart_tx\.cycle_counter\[0\]
*314 i_uart_tx\.cycle_counter\[10\]
*315 i_uart_tx\.cycle_counter\[11\]
*316 i_uart_tx\.cycle_counter\[12\]
*317 i_uart_tx\.cycle_counter\[13\]
*318 i_uart_tx\.cycle_counter\[1\]
*319 i_uart_tx\.cycle_counter\[2\]
*320 i_uart_tx\.cycle_counter\[3\]
*321 i_uart_tx\.cycle_counter\[4\]
*322 i_uart_tx\.cycle_counter\[5\]
*323 i_uart_tx\.cycle_counter\[6\]
*324 i_uart_tx\.cycle_counter\[7\]
*325 i_uart_tx\.cycle_counter\[8\]
*326 i_uart_tx\.cycle_counter\[9\]
*327 i_uart_tx\.data_to_send\[0\]
*328 i_uart_tx\.data_to_send\[1\]
*329 i_uart_tx\.data_to_send\[2\]
*330 i_uart_tx\.data_to_send\[3\]
*331 i_uart_tx\.data_to_send\[4\]
*332 i_uart_tx\.data_to_send\[5\]
*333 i_uart_tx\.data_to_send\[6\]
*334 i_uart_tx\.data_to_send\[7\]
*335 i_uart_tx\.fsm_state\[0\]
*336 i_uart_tx\.fsm_state\[1\]
*337 i_uart_tx\.fsm_state\[2\]
*338 i_uart_tx\.fsm_state\[3\]
*339 net1
*340 net10
*341 net100
*342 net101
*343 net102
*344 net103
*345 net104
*346 net105
*347 net106
*348 net107
*349 net108
*350 net109
*351 net11
*352 net110
*353 net111
*354 net112
*355 net113
*356 net114
*357 net115
*358 net116
*359 net117
*360 net118
*361 net119
*362 net12
*363 net120
*364 net121
*365 net122
*366 net123
*367 net124
*368 net125
*369 net126
*370 net127
*371 net128
*372 net129
*373 net13
*374 net130
*375 net131
*376 net132
*377 net133
*378 net134
*379 net135
*380 net136
*381 net137
*382 net138
*383 net139
*384 net14
*385 net140
*386 net141
*387 net142
*388 net143
*389 net144
*390 net145
*391 net146
*392 net147
*393 net148
*394 net149
*395 net15
*396 net150
*397 net151
*398 net152
*399 net153
*400 net154
*401 net155
*402 net156
*403 net157
*404 net158
*405 net159
*406 net16
*407 net160
*408 net161
*409 net162
*410 net163
*411 net164
*412 net165
*413 net166
*414 net167
*415 net168
*416 net169
*417 net17
*418 net170
*419 net171
*420 net172
*421 net173
*422 net174
*423 net175
*424 net176
*425 net177
*426 net178
*427 net179
*428 net18
*429 net180
*430 net181
*431 net182
*432 net183
*433 net19
*434 net2
*435 net20
*436 net21
*437 net22
*438 net23
*439 net24
*440 net25
*441 net26
*442 net27
*443 net28
*444 net29
*445 net3
*446 net30
*447 net31
*448 net32
*449 net33
*450 net34
*451 net35
*452 net36
*453 net37
*454 net38
*455 net39
*456 net4
*457 net40
*458 net41
*459 net42
*460 net43
*461 net44
*462 net45
*463 net46
*464 net47
*465 net48
*466 net49
*467 net5
*468 net50
*469 net51
*470 net52
*471 net53
*472 net54
*473 net55
*474 net56
*475 net57
*476 net58
*477 net59
*478 net6
*479 net60
*480 net61
*481 net62
*482 net63
*483 net64
*484 net65
*485 net66
*486 net67
*487 net68
*488 net69
*489 net7
*490 net70
*491 net71
*492 net72
*493 net73
*494 net74
*495 net75
*496 net76
*497 net77
*498 net78
*499 net79
*500 net8
*501 net80
*502 net81
*503 net82
*504 net83
*505 net84
*506 net85
*507 net86
*508 net87
*509 net88
*510 net89
*511 net9
*512 net90
*513 net91
*514 net92
*515 net93
*516 net94
*517 net95
*518 net96
*519 net97
*520 net98
*521 net99
*522 ANTENNA_1
*523 ANTENNA__247__A
*524 ANTENNA__247__Y
*525 ANTENNA__271__C1
*526 ANTENNA__283__X
*527 ANTENNA__286__A2
*528 ANTENNA__286__C1
*529 ANTENNA__289__B
*530 ANTENNA__290__A2
*531 ANTENNA__291__A
*532 ANTENNA__292__A1
*533 ANTENNA__293__A
*534 ANTENNA__297__A
*535 ANTENNA__298__A1
*536 ANTENNA__299__A2
*537 ANTENNA__300__B1
*538 ANTENNA__303__A2
*539 ANTENNA__305__A2
*540 ANTENNA__307__A2
*541 ANTENNA__308__B1
*542 ANTENNA__309__A2
*543 ANTENNA__310__B1
*544 ANTENNA__311__A2
*545 ANTENNA__312__B1
*546 ANTENNA__313__A2
*547 ANTENNA__314__B1
*548 ANTENNA__315__A2
*549 ANTENNA__336__C1
*550 ANTENNA__337__B
*551 ANTENNA__348__B1
*552 ANTENNA__350__B1
*553 ANTENNA__352__B1
*554 ANTENNA__354__B1
*555 ANTENNA__358__B
*556 ANTENNA__388__C1
*557 ANTENNA__429__A
*558 ANTENNA__430__A
*559 ANTENNA__431__A2
*560 ANTENNA__432__B1
*561 ANTENNA__485__A
*562 ANTENNA_clkbuf_0_clk_A
*563 ANTENNA_clkbuf_0_clk_X
*564 ANTENNA_clkbuf_3_0__f_clk_A
*565 ANTENNA_clkbuf_3_1__f_clk_A
*566 ANTENNA_clkbuf_3_2__f_clk_A
*567 ANTENNA_clkbuf_3_3__f_clk_A
*568 ANTENNA_clkbuf_3_4__f_clk_A
*569 ANTENNA_clkbuf_3_5__f_clk_A
*570 ANTENNA_clkbuf_3_6__f_clk_A
*571 ANTENNA_clkbuf_3_7__f_clk_A
*572 ANTENNA_fanout12_A
*573 ANTENNA_fanout13_X
*574 ANTENNA_input1_A
*575 ANTENNA_input2_A
*576 FILLER_0_109
*577 FILLER_0_111
*578 FILLER_0_113
*579 FILLER_0_125
*580 FILLER_0_137
*581 FILLER_0_139
*582 FILLER_0_141
*583 FILLER_0_15
*584 FILLER_0_153
*585 FILLER_0_165
*586 FILLER_0_167
*587 FILLER_0_169
*588 FILLER_0_181
*589 FILLER_0_189
*590 FILLER_0_191
*591 FILLER_0_197
*592 FILLER_0_209
*593 FILLER_0_221
*594 FILLER_0_223
*595 FILLER_0_225
*596 FILLER_0_237
*597 FILLER_0_249
*598 FILLER_0_251
*599 FILLER_0_253
*600 FILLER_0_265
*601 FILLER_0_27
*602 FILLER_0_277
*603 FILLER_0_279
*604 FILLER_0_281
*605 FILLER_0_29
*606 FILLER_0_293
*607 FILLER_0_3
*608 FILLER_0_305
*609 FILLER_0_307
*610 FILLER_0_309
*611 FILLER_0_321
*612 FILLER_0_333
*613 FILLER_0_335
*614 FILLER_0_337
*615 FILLER_0_349
*616 FILLER_0_361
*617 FILLER_0_363
*618 FILLER_0_365
*619 FILLER_0_377
*620 FILLER_0_389
*621 FILLER_0_391
*622 FILLER_0_393
*623 FILLER_0_405
*624 FILLER_0_41
*625 FILLER_0_53
*626 FILLER_0_55
*627 FILLER_0_57
*628 FILLER_0_69
*629 FILLER_0_81
*630 FILLER_0_83
*631 FILLER_0_85
*632 FILLER_0_97
*633 FILLER_10_109
*634 FILLER_10_121
*635 FILLER_10_133
*636 FILLER_10_137
*637 FILLER_10_139
*638 FILLER_10_141
*639 FILLER_10_15
*640 FILLER_10_153
*641 FILLER_10_165
*642 FILLER_10_177
*643 FILLER_10_189
*644 FILLER_10_193
*645 FILLER_10_195
*646 FILLER_10_197
*647 FILLER_10_209
*648 FILLER_10_221
*649 FILLER_10_233
*650 FILLER_10_245
*651 FILLER_10_249
*652 FILLER_10_251
*653 FILLER_10_253
*654 FILLER_10_265
*655 FILLER_10_27
*656 FILLER_10_277
*657 FILLER_10_289
*658 FILLER_10_29
*659 FILLER_10_3
*660 FILLER_10_301
*661 FILLER_10_305
*662 FILLER_10_307
*663 FILLER_10_309
*664 FILLER_10_321
*665 FILLER_10_333
*666 FILLER_10_345
*667 FILLER_10_357
*668 FILLER_10_361
*669 FILLER_10_363
*670 FILLER_10_365
*671 FILLER_10_377
*672 FILLER_10_389
*673 FILLER_10_401
*674 FILLER_10_405
*675 FILLER_10_41
*676 FILLER_10_53
*677 FILLER_10_65
*678 FILLER_10_77
*679 FILLER_10_81
*680 FILLER_10_83
*681 FILLER_10_85
*682 FILLER_10_97
*683 FILLER_11_105
*684 FILLER_11_109
*685 FILLER_11_111
*686 FILLER_11_113
*687 FILLER_11_125
*688 FILLER_11_137
*689 FILLER_11_149
*690 FILLER_11_15
*691 FILLER_11_161
*692 FILLER_11_165
*693 FILLER_11_167
*694 FILLER_11_169
*695 FILLER_11_181
*696 FILLER_11_193
*697 FILLER_11_205
*698 FILLER_11_217
*699 FILLER_11_221
*700 FILLER_11_223
*701 FILLER_11_225
*702 FILLER_11_237
*703 FILLER_11_249
*704 FILLER_11_261
*705 FILLER_11_27
*706 FILLER_11_273
*707 FILLER_11_277
*708 FILLER_11_279
*709 FILLER_11_281
*710 FILLER_11_293
*711 FILLER_11_3
*712 FILLER_11_305
*713 FILLER_11_317
*714 FILLER_11_329
*715 FILLER_11_333
*716 FILLER_11_335
*717 FILLER_11_337
*718 FILLER_11_349
*719 FILLER_11_361
*720 FILLER_11_373
*721 FILLER_11_385
*722 FILLER_11_389
*723 FILLER_11_39
*724 FILLER_11_391
*725 FILLER_11_393
*726 FILLER_11_405
*727 FILLER_11_51
*728 FILLER_11_55
*729 FILLER_11_57
*730 FILLER_11_69
*731 FILLER_11_81
*732 FILLER_11_93
*733 FILLER_12_109
*734 FILLER_12_121
*735 FILLER_12_133
*736 FILLER_12_137
*737 FILLER_12_139
*738 FILLER_12_141
*739 FILLER_12_15
*740 FILLER_12_153
*741 FILLER_12_165
*742 FILLER_12_177
*743 FILLER_12_189
*744 FILLER_12_193
*745 FILLER_12_195
*746 FILLER_12_197
*747 FILLER_12_209
*748 FILLER_12_221
*749 FILLER_12_233
*750 FILLER_12_245
*751 FILLER_12_249
*752 FILLER_12_251
*753 FILLER_12_253
*754 FILLER_12_265
*755 FILLER_12_27
*756 FILLER_12_277
*757 FILLER_12_289
*758 FILLER_12_29
*759 FILLER_12_3
*760 FILLER_12_301
*761 FILLER_12_305
*762 FILLER_12_307
*763 FILLER_12_309
*764 FILLER_12_321
*765 FILLER_12_333
*766 FILLER_12_345
*767 FILLER_12_357
*768 FILLER_12_361
*769 FILLER_12_363
*770 FILLER_12_365
*771 FILLER_12_377
*772 FILLER_12_389
*773 FILLER_12_401
*774 FILLER_12_405
*775 FILLER_12_41
*776 FILLER_12_53
*777 FILLER_12_65
*778 FILLER_12_77
*779 FILLER_12_81
*780 FILLER_12_83
*781 FILLER_12_85
*782 FILLER_12_97
*783 FILLER_13_105
*784 FILLER_13_109
*785 FILLER_13_111
*786 FILLER_13_113
*787 FILLER_13_125
*788 FILLER_13_137
*789 FILLER_13_149
*790 FILLER_13_15
*791 FILLER_13_161
*792 FILLER_13_165
*793 FILLER_13_167
*794 FILLER_13_169
*795 FILLER_13_181
*796 FILLER_13_193
*797 FILLER_13_205
*798 FILLER_13_217
*799 FILLER_13_221
*800 FILLER_13_223
*801 FILLER_13_225
*802 FILLER_13_237
*803 FILLER_13_249
*804 FILLER_13_261
*805 FILLER_13_27
*806 FILLER_13_273
*807 FILLER_13_277
*808 FILLER_13_279
*809 FILLER_13_281
*810 FILLER_13_293
*811 FILLER_13_3
*812 FILLER_13_305
*813 FILLER_13_317
*814 FILLER_13_329
*815 FILLER_13_333
*816 FILLER_13_335
*817 FILLER_13_337
*818 FILLER_13_349
*819 FILLER_13_361
*820 FILLER_13_373
*821 FILLER_13_385
*822 FILLER_13_389
*823 FILLER_13_39
*824 FILLER_13_391
*825 FILLER_13_393
*826 FILLER_13_405
*827 FILLER_13_51
*828 FILLER_13_55
*829 FILLER_13_57
*830 FILLER_13_69
*831 FILLER_13_81
*832 FILLER_13_93
*833 FILLER_14_109
*834 FILLER_14_121
*835 FILLER_14_133
*836 FILLER_14_137
*837 FILLER_14_139
*838 FILLER_14_141
*839 FILLER_14_15
*840 FILLER_14_153
*841 FILLER_14_165
*842 FILLER_14_177
*843 FILLER_14_189
*844 FILLER_14_193
*845 FILLER_14_195
*846 FILLER_14_197
*847 FILLER_14_209
*848 FILLER_14_221
*849 FILLER_14_233
*850 FILLER_14_245
*851 FILLER_14_249
*852 FILLER_14_251
*853 FILLER_14_253
*854 FILLER_14_265
*855 FILLER_14_27
*856 FILLER_14_277
*857 FILLER_14_289
*858 FILLER_14_29
*859 FILLER_14_3
*860 FILLER_14_301
*861 FILLER_14_305
*862 FILLER_14_307
*863 FILLER_14_309
*864 FILLER_14_321
*865 FILLER_14_333
*866 FILLER_14_345
*867 FILLER_14_357
*868 FILLER_14_361
*869 FILLER_14_363
*870 FILLER_14_365
*871 FILLER_14_377
*872 FILLER_14_389
*873 FILLER_14_401
*874 FILLER_14_405
*875 FILLER_14_41
*876 FILLER_14_53
*877 FILLER_14_65
*878 FILLER_14_77
*879 FILLER_14_81
*880 FILLER_14_83
*881 FILLER_14_85
*882 FILLER_14_97
*883 FILLER_15_105
*884 FILLER_15_109
*885 FILLER_15_111
*886 FILLER_15_113
*887 FILLER_15_125
*888 FILLER_15_137
*889 FILLER_15_149
*890 FILLER_15_15
*891 FILLER_15_161
*892 FILLER_15_165
*893 FILLER_15_167
*894 FILLER_15_169
*895 FILLER_15_181
*896 FILLER_15_193
*897 FILLER_15_205
*898 FILLER_15_217
*899 FILLER_15_221
*900 FILLER_15_223
*901 FILLER_15_225
*902 FILLER_15_237
*903 FILLER_15_249
*904 FILLER_15_261
*905 FILLER_15_27
*906 FILLER_15_273
*907 FILLER_15_277
*908 FILLER_15_279
*909 FILLER_15_281
*910 FILLER_15_293
*911 FILLER_15_3
*912 FILLER_15_305
*913 FILLER_15_317
*914 FILLER_15_329
*915 FILLER_15_333
*916 FILLER_15_335
*917 FILLER_15_337
*918 FILLER_15_349
*919 FILLER_15_361
*920 FILLER_15_373
*921 FILLER_15_385
*922 FILLER_15_389
*923 FILLER_15_39
*924 FILLER_15_391
*925 FILLER_15_393
*926 FILLER_15_405
*927 FILLER_15_51
*928 FILLER_15_55
*929 FILLER_15_57
*930 FILLER_15_69
*931 FILLER_15_81
*932 FILLER_15_93
*933 FILLER_16_109
*934 FILLER_16_121
*935 FILLER_16_133
*936 FILLER_16_137
*937 FILLER_16_139
*938 FILLER_16_141
*939 FILLER_16_15
*940 FILLER_16_153
*941 FILLER_16_165
*942 FILLER_16_177
*943 FILLER_16_189
*944 FILLER_16_193
*945 FILLER_16_195
*946 FILLER_16_197
*947 FILLER_16_209
*948 FILLER_16_221
*949 FILLER_16_233
*950 FILLER_16_245
*951 FILLER_16_249
*952 FILLER_16_251
*953 FILLER_16_253
*954 FILLER_16_265
*955 FILLER_16_27
*956 FILLER_16_277
*957 FILLER_16_289
*958 FILLER_16_29
*959 FILLER_16_3
*960 FILLER_16_301
*961 FILLER_16_305
*962 FILLER_16_307
*963 FILLER_16_309
*964 FILLER_16_321
*965 FILLER_16_333
*966 FILLER_16_345
*967 FILLER_16_357
*968 FILLER_16_361
*969 FILLER_16_363
*970 FILLER_16_365
*971 FILLER_16_377
*972 FILLER_16_389
*973 FILLER_16_401
*974 FILLER_16_405
*975 FILLER_16_41
*976 FILLER_16_53
*977 FILLER_16_65
*978 FILLER_16_77
*979 FILLER_16_81
*980 FILLER_16_83
*981 FILLER_16_85
*982 FILLER_16_97
*983 FILLER_17_105
*984 FILLER_17_109
*985 FILLER_17_111
*986 FILLER_17_113
*987 FILLER_17_125
*988 FILLER_17_137
*989 FILLER_17_149
*990 FILLER_17_15
*991 FILLER_17_161
*992 FILLER_17_165
*993 FILLER_17_167
*994 FILLER_17_169
*995 FILLER_17_181
*996 FILLER_17_193
*997 FILLER_17_205
*998 FILLER_17_217
*999 FILLER_17_221
*1000 FILLER_17_223
*1001 FILLER_17_225
*1002 FILLER_17_237
*1003 FILLER_17_249
*1004 FILLER_17_261
*1005 FILLER_17_27
*1006 FILLER_17_273
*1007 FILLER_17_277
*1008 FILLER_17_279
*1009 FILLER_17_281
*1010 FILLER_17_285
*1011 FILLER_17_287
*1012 FILLER_17_3
*1013 FILLER_17_304
*1014 FILLER_17_311
*1015 FILLER_17_323
*1016 FILLER_17_335
*1017 FILLER_17_337
*1018 FILLER_17_349
*1019 FILLER_17_361
*1020 FILLER_17_373
*1021 FILLER_17_385
*1022 FILLER_17_389
*1023 FILLER_17_39
*1024 FILLER_17_391
*1025 FILLER_17_393
*1026 FILLER_17_405
*1027 FILLER_17_51
*1028 FILLER_17_55
*1029 FILLER_17_57
*1030 FILLER_17_69
*1031 FILLER_17_81
*1032 FILLER_17_93
*1033 FILLER_18_109
*1034 FILLER_18_121
*1035 FILLER_18_133
*1036 FILLER_18_137
*1037 FILLER_18_139
*1038 FILLER_18_141
*1039 FILLER_18_15
*1040 FILLER_18_153
*1041 FILLER_18_165
*1042 FILLER_18_177
*1043 FILLER_18_189
*1044 FILLER_18_193
*1045 FILLER_18_195
*1046 FILLER_18_197
*1047 FILLER_18_209
*1048 FILLER_18_221
*1049 FILLER_18_233
*1050 FILLER_18_245
*1051 FILLER_18_249
*1052 FILLER_18_251
*1053 FILLER_18_27
*1054 FILLER_18_280
*1055 FILLER_18_29
*1056 FILLER_18_3
*1057 FILLER_18_329
*1058 FILLER_18_341
*1059 FILLER_18_353
*1060 FILLER_18_361
*1061 FILLER_18_363
*1062 FILLER_18_365
*1063 FILLER_18_377
*1064 FILLER_18_386
*1065 FILLER_18_398
*1066 FILLER_18_406
*1067 FILLER_18_41
*1068 FILLER_18_53
*1069 FILLER_18_65
*1070 FILLER_18_77
*1071 FILLER_18_81
*1072 FILLER_18_83
*1073 FILLER_18_85
*1074 FILLER_18_97
*1075 FILLER_19_105
*1076 FILLER_19_109
*1077 FILLER_19_111
*1078 FILLER_19_113
*1079 FILLER_19_125
*1080 FILLER_19_137
*1081 FILLER_19_149
*1082 FILLER_19_15
*1083 FILLER_19_161
*1084 FILLER_19_165
*1085 FILLER_19_167
*1086 FILLER_19_169
*1087 FILLER_19_181
*1088 FILLER_19_193
*1089 FILLER_19_205
*1090 FILLER_19_217
*1091 FILLER_19_221
*1092 FILLER_19_223
*1093 FILLER_19_225
*1094 FILLER_19_237
*1095 FILLER_19_241
*1096 FILLER_19_263
*1097 FILLER_19_27
*1098 FILLER_19_289
*1099 FILLER_19_3
*1100 FILLER_19_315
*1101 FILLER_19_332
*1102 FILLER_19_337
*1103 FILLER_19_349
*1104 FILLER_19_361
*1105 FILLER_19_369
*1106 FILLER_19_380
*1107 FILLER_19_39
*1108 FILLER_19_390
*1109 FILLER_19_395
*1110 FILLER_19_404
*1111 FILLER_19_406
*1112 FILLER_19_51
*1113 FILLER_19_55
*1114 FILLER_19_57
*1115 FILLER_19_69
*1116 FILLER_19_81
*1117 FILLER_19_93
*1118 FILLER_1_105
*1119 FILLER_1_109
*1120 FILLER_1_111
*1121 FILLER_1_113
*1122 FILLER_1_125
*1123 FILLER_1_137
*1124 FILLER_1_149
*1125 FILLER_1_15
*1126 FILLER_1_161
*1127 FILLER_1_165
*1128 FILLER_1_167
*1129 FILLER_1_169
*1130 FILLER_1_181
*1131 FILLER_1_193
*1132 FILLER_1_205
*1133 FILLER_1_217
*1134 FILLER_1_221
*1135 FILLER_1_223
*1136 FILLER_1_225
*1137 FILLER_1_237
*1138 FILLER_1_249
*1139 FILLER_1_261
*1140 FILLER_1_27
*1141 FILLER_1_273
*1142 FILLER_1_277
*1143 FILLER_1_279
*1144 FILLER_1_281
*1145 FILLER_1_293
*1146 FILLER_1_3
*1147 FILLER_1_305
*1148 FILLER_1_317
*1149 FILLER_1_329
*1150 FILLER_1_333
*1151 FILLER_1_335
*1152 FILLER_1_337
*1153 FILLER_1_349
*1154 FILLER_1_361
*1155 FILLER_1_373
*1156 FILLER_1_385
*1157 FILLER_1_389
*1158 FILLER_1_39
*1159 FILLER_1_391
*1160 FILLER_1_393
*1161 FILLER_1_405
*1162 FILLER_1_51
*1163 FILLER_1_55
*1164 FILLER_1_57
*1165 FILLER_1_69
*1166 FILLER_1_81
*1167 FILLER_1_93
*1168 FILLER_20_109
*1169 FILLER_20_121
*1170 FILLER_20_133
*1171 FILLER_20_137
*1172 FILLER_20_139
*1173 FILLER_20_141
*1174 FILLER_20_15
*1175 FILLER_20_153
*1176 FILLER_20_165
*1177 FILLER_20_177
*1178 FILLER_20_189
*1179 FILLER_20_193
*1180 FILLER_20_195
*1181 FILLER_20_197
*1182 FILLER_20_209
*1183 FILLER_20_221
*1184 FILLER_20_233
*1185 FILLER_20_245
*1186 FILLER_20_247
*1187 FILLER_20_253
*1188 FILLER_20_27
*1189 FILLER_20_271
*1190 FILLER_20_285
*1191 FILLER_20_29
*1192 FILLER_20_3
*1193 FILLER_20_305
*1194 FILLER_20_307
*1195 FILLER_20_333
*1196 FILLER_20_341
*1197 FILLER_20_358
*1198 FILLER_20_362
*1199 FILLER_20_404
*1200 FILLER_20_406
*1201 FILLER_20_41
*1202 FILLER_20_53
*1203 FILLER_20_65
*1204 FILLER_20_77
*1205 FILLER_20_81
*1206 FILLER_20_83
*1207 FILLER_20_85
*1208 FILLER_20_97
*1209 FILLER_21_105
*1210 FILLER_21_109
*1211 FILLER_21_111
*1212 FILLER_21_113
*1213 FILLER_21_125
*1214 FILLER_21_137
*1215 FILLER_21_149
*1216 FILLER_21_15
*1217 FILLER_21_161
*1218 FILLER_21_165
*1219 FILLER_21_167
*1220 FILLER_21_169
*1221 FILLER_21_181
*1222 FILLER_21_193
*1223 FILLER_21_205
*1224 FILLER_21_217
*1225 FILLER_21_221
*1226 FILLER_21_223
*1227 FILLER_21_225
*1228 FILLER_21_233
*1229 FILLER_21_250
*1230 FILLER_21_27
*1231 FILLER_21_271
*1232 FILLER_21_297
*1233 FILLER_21_3
*1234 FILLER_21_315
*1235 FILLER_21_327
*1236 FILLER_21_335
*1237 FILLER_21_337
*1238 FILLER_21_355
*1239 FILLER_21_370
*1240 FILLER_21_372
*1241 FILLER_21_383
*1242 FILLER_21_39
*1243 FILLER_21_406
*1244 FILLER_21_51
*1245 FILLER_21_55
*1246 FILLER_21_57
*1247 FILLER_21_69
*1248 FILLER_21_81
*1249 FILLER_21_93
*1250 FILLER_22_109
*1251 FILLER_22_121
*1252 FILLER_22_133
*1253 FILLER_22_137
*1254 FILLER_22_139
*1255 FILLER_22_141
*1256 FILLER_22_15
*1257 FILLER_22_153
*1258 FILLER_22_165
*1259 FILLER_22_177
*1260 FILLER_22_189
*1261 FILLER_22_193
*1262 FILLER_22_195
*1263 FILLER_22_197
*1264 FILLER_22_209
*1265 FILLER_22_221
*1266 FILLER_22_233
*1267 FILLER_22_237
*1268 FILLER_22_239
*1269 FILLER_22_251
*1270 FILLER_22_267
*1271 FILLER_22_27
*1272 FILLER_22_29
*1273 FILLER_22_290
*1274 FILLER_22_3
*1275 FILLER_22_314
*1276 FILLER_22_316
*1277 FILLER_22_333
*1278 FILLER_22_335
*1279 FILLER_22_360
*1280 FILLER_22_390
*1281 FILLER_22_41
*1282 FILLER_22_53
*1283 FILLER_22_65
*1284 FILLER_22_77
*1285 FILLER_22_81
*1286 FILLER_22_83
*1287 FILLER_22_85
*1288 FILLER_22_97
*1289 FILLER_23_105
*1290 FILLER_23_109
*1291 FILLER_23_111
*1292 FILLER_23_113
*1293 FILLER_23_125
*1294 FILLER_23_137
*1295 FILLER_23_149
*1296 FILLER_23_15
*1297 FILLER_23_161
*1298 FILLER_23_165
*1299 FILLER_23_167
*1300 FILLER_23_169
*1301 FILLER_23_181
*1302 FILLER_23_193
*1303 FILLER_23_205
*1304 FILLER_23_217
*1305 FILLER_23_221
*1306 FILLER_23_223
*1307 FILLER_23_225
*1308 FILLER_23_27
*1309 FILLER_23_277
*1310 FILLER_23_279
*1311 FILLER_23_281
*1312 FILLER_23_285
*1313 FILLER_23_287
*1314 FILLER_23_296
*1315 FILLER_23_3
*1316 FILLER_23_308
*1317 FILLER_23_312
*1318 FILLER_23_317
*1319 FILLER_23_319
*1320 FILLER_23_333
*1321 FILLER_23_335
*1322 FILLER_23_355
*1323 FILLER_23_364
*1324 FILLER_23_372
*1325 FILLER_23_39
*1326 FILLER_23_406
*1327 FILLER_23_51
*1328 FILLER_23_55
*1329 FILLER_23_57
*1330 FILLER_23_69
*1331 FILLER_23_81
*1332 FILLER_23_93
*1333 FILLER_24_109
*1334 FILLER_24_121
*1335 FILLER_24_133
*1336 FILLER_24_137
*1337 FILLER_24_139
*1338 FILLER_24_141
*1339 FILLER_24_15
*1340 FILLER_24_153
*1341 FILLER_24_165
*1342 FILLER_24_177
*1343 FILLER_24_189
*1344 FILLER_24_193
*1345 FILLER_24_195
*1346 FILLER_24_197
*1347 FILLER_24_209
*1348 FILLER_24_221
*1349 FILLER_24_229
*1350 FILLER_24_253
*1351 FILLER_24_27
*1352 FILLER_24_271
*1353 FILLER_24_280
*1354 FILLER_24_282
*1355 FILLER_24_29
*1356 FILLER_24_299
*1357 FILLER_24_3
*1358 FILLER_24_307
*1359 FILLER_24_309
*1360 FILLER_24_327
*1361 FILLER_24_336
*1362 FILLER_24_338
*1363 FILLER_24_363
*1364 FILLER_24_368
*1365 FILLER_24_41
*1366 FILLER_24_53
*1367 FILLER_24_65
*1368 FILLER_24_77
*1369 FILLER_24_81
*1370 FILLER_24_83
*1371 FILLER_24_85
*1372 FILLER_24_97
*1373 FILLER_25_105
*1374 FILLER_25_109
*1375 FILLER_25_111
*1376 FILLER_25_113
*1377 FILLER_25_125
*1378 FILLER_25_137
*1379 FILLER_25_149
*1380 FILLER_25_15
*1381 FILLER_25_161
*1382 FILLER_25_165
*1383 FILLER_25_167
*1384 FILLER_25_169
*1385 FILLER_25_181
*1386 FILLER_25_206
*1387 FILLER_25_218
*1388 FILLER_25_222
*1389 FILLER_25_225
*1390 FILLER_25_237
*1391 FILLER_25_241
*1392 FILLER_25_251
*1393 FILLER_25_255
*1394 FILLER_25_257
*1395 FILLER_25_266
*1396 FILLER_25_27
*1397 FILLER_25_297
*1398 FILLER_25_3
*1399 FILLER_25_363
*1400 FILLER_25_383
*1401 FILLER_25_39
*1402 FILLER_25_51
*1403 FILLER_25_55
*1404 FILLER_25_57
*1405 FILLER_25_69
*1406 FILLER_25_81
*1407 FILLER_25_93
*1408 FILLER_26_109
*1409 FILLER_26_121
*1410 FILLER_26_133
*1411 FILLER_26_137
*1412 FILLER_26_139
*1413 FILLER_26_141
*1414 FILLER_26_15
*1415 FILLER_26_153
*1416 FILLER_26_165
*1417 FILLER_26_177
*1418 FILLER_26_185
*1419 FILLER_26_187
*1420 FILLER_26_197
*1421 FILLER_26_199
*1422 FILLER_26_208
*1423 FILLER_26_220
*1424 FILLER_26_232
*1425 FILLER_26_240
*1426 FILLER_26_248
*1427 FILLER_26_267
*1428 FILLER_26_27
*1429 FILLER_26_276
*1430 FILLER_26_29
*1431 FILLER_26_3
*1432 FILLER_26_305
*1433 FILLER_26_307
*1434 FILLER_26_333
*1435 FILLER_26_345
*1436 FILLER_26_406
*1437 FILLER_26_41
*1438 FILLER_26_53
*1439 FILLER_26_65
*1440 FILLER_26_77
*1441 FILLER_26_81
*1442 FILLER_26_83
*1443 FILLER_26_85
*1444 FILLER_26_97
*1445 FILLER_27_105
*1446 FILLER_27_109
*1447 FILLER_27_111
*1448 FILLER_27_113
*1449 FILLER_27_125
*1450 FILLER_27_137
*1451 FILLER_27_149
*1452 FILLER_27_15
*1453 FILLER_27_161
*1454 FILLER_27_165
*1455 FILLER_27_167
*1456 FILLER_27_169
*1457 FILLER_27_181
*1458 FILLER_27_193
*1459 FILLER_27_205
*1460 FILLER_27_218
*1461 FILLER_27_222
*1462 FILLER_27_228
*1463 FILLER_27_237
*1464 FILLER_27_241
*1465 FILLER_27_27
*1466 FILLER_27_278
*1467 FILLER_27_289
*1468 FILLER_27_291
*1469 FILLER_27_3
*1470 FILLER_27_300
*1471 FILLER_27_319
*1472 FILLER_27_323
*1473 FILLER_27_335
*1474 FILLER_27_337
*1475 FILLER_27_353
*1476 FILLER_27_357
*1477 FILLER_27_39
*1478 FILLER_27_398
*1479 FILLER_27_51
*1480 FILLER_27_55
*1481 FILLER_27_57
*1482 FILLER_27_69
*1483 FILLER_27_81
*1484 FILLER_27_93
*1485 FILLER_28_109
*1486 FILLER_28_121
*1487 FILLER_28_133
*1488 FILLER_28_137
*1489 FILLER_28_139
*1490 FILLER_28_141
*1491 FILLER_28_15
*1492 FILLER_28_153
*1493 FILLER_28_165
*1494 FILLER_28_177
*1495 FILLER_28_205
*1496 FILLER_28_230
*1497 FILLER_28_234
*1498 FILLER_28_244
*1499 FILLER_28_248
*1500 FILLER_28_261
*1501 FILLER_28_27
*1502 FILLER_28_270
*1503 FILLER_28_272
*1504 FILLER_28_29
*1505 FILLER_28_297
*1506 FILLER_28_3
*1507 FILLER_28_307
*1508 FILLER_28_336
*1509 FILLER_28_344
*1510 FILLER_28_382
*1511 FILLER_28_41
*1512 FILLER_28_53
*1513 FILLER_28_65
*1514 FILLER_28_77
*1515 FILLER_28_81
*1516 FILLER_28_83
*1517 FILLER_28_85
*1518 FILLER_28_97
*1519 FILLER_29_105
*1520 FILLER_29_109
*1521 FILLER_29_111
*1522 FILLER_29_113
*1523 FILLER_29_125
*1524 FILLER_29_137
*1525 FILLER_29_149
*1526 FILLER_29_161
*1527 FILLER_29_165
*1528 FILLER_29_167
*1529 FILLER_29_20
*1530 FILLER_29_201
*1531 FILLER_29_210
*1532 FILLER_29_212
*1533 FILLER_29_223
*1534 FILLER_29_293
*1535 FILLER_29_32
*1536 FILLER_29_391
*1537 FILLER_29_44
*1538 FILLER_29_57
*1539 FILLER_29_69
*1540 FILLER_29_8
*1541 FILLER_29_81
*1542 FILLER_29_93
*1543 FILLER_2_109
*1544 FILLER_2_121
*1545 FILLER_2_133
*1546 FILLER_2_137
*1547 FILLER_2_139
*1548 FILLER_2_141
*1549 FILLER_2_15
*1550 FILLER_2_153
*1551 FILLER_2_165
*1552 FILLER_2_177
*1553 FILLER_2_189
*1554 FILLER_2_193
*1555 FILLER_2_195
*1556 FILLER_2_197
*1557 FILLER_2_209
*1558 FILLER_2_221
*1559 FILLER_2_233
*1560 FILLER_2_245
*1561 FILLER_2_249
*1562 FILLER_2_251
*1563 FILLER_2_253
*1564 FILLER_2_265
*1565 FILLER_2_27
*1566 FILLER_2_277
*1567 FILLER_2_289
*1568 FILLER_2_29
*1569 FILLER_2_3
*1570 FILLER_2_301
*1571 FILLER_2_305
*1572 FILLER_2_307
*1573 FILLER_2_309
*1574 FILLER_2_321
*1575 FILLER_2_333
*1576 FILLER_2_345
*1577 FILLER_2_357
*1578 FILLER_2_361
*1579 FILLER_2_363
*1580 FILLER_2_365
*1581 FILLER_2_377
*1582 FILLER_2_389
*1583 FILLER_2_401
*1584 FILLER_2_405
*1585 FILLER_2_41
*1586 FILLER_2_53
*1587 FILLER_2_65
*1588 FILLER_2_77
*1589 FILLER_2_81
*1590 FILLER_2_83
*1591 FILLER_2_85
*1592 FILLER_2_97
*1593 FILLER_30_109
*1594 FILLER_30_121
*1595 FILLER_30_133
*1596 FILLER_30_137
*1597 FILLER_30_139
*1598 FILLER_30_141
*1599 FILLER_30_15
*1600 FILLER_30_153
*1601 FILLER_30_165
*1602 FILLER_30_194
*1603 FILLER_30_242
*1604 FILLER_30_250
*1605 FILLER_30_269
*1606 FILLER_30_27
*1607 FILLER_30_284
*1608 FILLER_30_29
*1609 FILLER_30_296
*1610 FILLER_30_3
*1611 FILLER_30_326
*1612 FILLER_30_330
*1613 FILLER_30_336
*1614 FILLER_30_340
*1615 FILLER_30_357
*1616 FILLER_30_363
*1617 FILLER_30_41
*1618 FILLER_30_53
*1619 FILLER_30_65
*1620 FILLER_30_77
*1621 FILLER_30_81
*1622 FILLER_30_83
*1623 FILLER_30_85
*1624 FILLER_30_97
*1625 FILLER_31_105
*1626 FILLER_31_109
*1627 FILLER_31_111
*1628 FILLER_31_113
*1629 FILLER_31_125
*1630 FILLER_31_137
*1631 FILLER_31_149
*1632 FILLER_31_15
*1633 FILLER_31_161
*1634 FILLER_31_163
*1635 FILLER_31_167
*1636 FILLER_31_169
*1637 FILLER_31_177
*1638 FILLER_31_179
*1639 FILLER_31_196
*1640 FILLER_31_200
*1641 FILLER_31_221
*1642 FILLER_31_223
*1643 FILLER_31_225
*1644 FILLER_31_233
*1645 FILLER_31_245
*1646 FILLER_31_257
*1647 FILLER_31_261
*1648 FILLER_31_27
*1649 FILLER_31_279
*1650 FILLER_31_3
*1651 FILLER_31_313
*1652 FILLER_31_317
*1653 FILLER_31_332
*1654 FILLER_31_346
*1655 FILLER_31_348
*1656 FILLER_31_389
*1657 FILLER_31_39
*1658 FILLER_31_51
*1659 FILLER_31_55
*1660 FILLER_31_57
*1661 FILLER_31_69
*1662 FILLER_31_81
*1663 FILLER_31_93
*1664 FILLER_32_109
*1665 FILLER_32_121
*1666 FILLER_32_133
*1667 FILLER_32_137
*1668 FILLER_32_139
*1669 FILLER_32_141
*1670 FILLER_32_15
*1671 FILLER_32_153
*1672 FILLER_32_157
*1673 FILLER_32_159
*1674 FILLER_32_168
*1675 FILLER_32_193
*1676 FILLER_32_195
*1677 FILLER_32_212
*1678 FILLER_32_224
*1679 FILLER_32_226
*1680 FILLER_32_239
*1681 FILLER_32_251
*1682 FILLER_32_253
*1683 FILLER_32_27
*1684 FILLER_32_270
*1685 FILLER_32_29
*1686 FILLER_32_3
*1687 FILLER_32_302
*1688 FILLER_32_317
*1689 FILLER_32_389
*1690 FILLER_32_406
*1691 FILLER_32_41
*1692 FILLER_32_53
*1693 FILLER_32_65
*1694 FILLER_32_77
*1695 FILLER_32_81
*1696 FILLER_32_83
*1697 FILLER_32_85
*1698 FILLER_32_97
*1699 FILLER_33_105
*1700 FILLER_33_109
*1701 FILLER_33_111
*1702 FILLER_33_113
*1703 FILLER_33_125
*1704 FILLER_33_137
*1705 FILLER_33_149
*1706 FILLER_33_15
*1707 FILLER_33_151
*1708 FILLER_33_177
*1709 FILLER_33_190
*1710 FILLER_33_202
*1711 FILLER_33_204
*1712 FILLER_33_222
*1713 FILLER_33_225
*1714 FILLER_33_27
*1715 FILLER_33_298
*1716 FILLER_33_3
*1717 FILLER_33_326
*1718 FILLER_33_39
*1719 FILLER_33_391
*1720 FILLER_33_51
*1721 FILLER_33_55
*1722 FILLER_33_57
*1723 FILLER_33_69
*1724 FILLER_33_81
*1725 FILLER_33_93
*1726 FILLER_34_109
*1727 FILLER_34_121
*1728 FILLER_34_133
*1729 FILLER_34_137
*1730 FILLER_34_139
*1731 FILLER_34_141
*1732 FILLER_34_15
*1733 FILLER_34_153
*1734 FILLER_34_165
*1735 FILLER_34_184
*1736 FILLER_34_186
*1737 FILLER_34_195
*1738 FILLER_34_197
*1739 FILLER_34_201
*1740 FILLER_34_219
*1741 FILLER_34_235
*1742 FILLER_34_244
*1743 FILLER_34_248
*1744 FILLER_34_269
*1745 FILLER_34_27
*1746 FILLER_34_275
*1747 FILLER_34_29
*1748 FILLER_34_294
*1749 FILLER_34_298
*1750 FILLER_34_3
*1751 FILLER_34_327
*1752 FILLER_34_352
*1753 FILLER_34_363
*1754 FILLER_34_365
*1755 FILLER_34_389
*1756 FILLER_34_406
*1757 FILLER_34_41
*1758 FILLER_34_53
*1759 FILLER_34_65
*1760 FILLER_34_77
*1761 FILLER_34_81
*1762 FILLER_34_83
*1763 FILLER_34_85
*1764 FILLER_34_97
*1765 FILLER_35_105
*1766 FILLER_35_109
*1767 FILLER_35_111
*1768 FILLER_35_113
*1769 FILLER_35_125
*1770 FILLER_35_137
*1771 FILLER_35_145
*1772 FILLER_35_147
*1773 FILLER_35_15
*1774 FILLER_35_174
*1775 FILLER_35_176
*1776 FILLER_35_201
*1777 FILLER_35_223
*1778 FILLER_35_225
*1779 FILLER_35_233
*1780 FILLER_35_243
*1781 FILLER_35_27
*1782 FILLER_35_3
*1783 FILLER_35_302
*1784 FILLER_35_306
*1785 FILLER_35_308
*1786 FILLER_35_335
*1787 FILLER_35_337
*1788 FILLER_35_370
*1789 FILLER_35_39
*1790 FILLER_35_391
*1791 FILLER_35_51
*1792 FILLER_35_55
*1793 FILLER_35_57
*1794 FILLER_35_69
*1795 FILLER_35_81
*1796 FILLER_35_93
*1797 FILLER_36_109
*1798 FILLER_36_121
*1799 FILLER_36_133
*1800 FILLER_36_137
*1801 FILLER_36_139
*1802 FILLER_36_141
*1803 FILLER_36_15
*1804 FILLER_36_153
*1805 FILLER_36_165
*1806 FILLER_36_183
*1807 FILLER_36_194
*1808 FILLER_36_206
*1809 FILLER_36_210
*1810 FILLER_36_224
*1811 FILLER_36_228
*1812 FILLER_36_230
*1813 FILLER_36_239
*1814 FILLER_36_251
*1815 FILLER_36_27
*1816 FILLER_36_277
*1817 FILLER_36_29
*1818 FILLER_36_3
*1819 FILLER_36_302
*1820 FILLER_36_309
*1821 FILLER_36_311
*1822 FILLER_36_360
*1823 FILLER_36_41
*1824 FILLER_36_53
*1825 FILLER_36_65
*1826 FILLER_36_77
*1827 FILLER_36_81
*1828 FILLER_36_83
*1829 FILLER_36_85
*1830 FILLER_36_97
*1831 FILLER_37_105
*1832 FILLER_37_109
*1833 FILLER_37_111
*1834 FILLER_37_113
*1835 FILLER_37_125
*1836 FILLER_37_137
*1837 FILLER_37_149
*1838 FILLER_37_15
*1839 FILLER_37_164
*1840 FILLER_37_186
*1841 FILLER_37_198
*1842 FILLER_37_202
*1843 FILLER_37_208
*1844 FILLER_37_212
*1845 FILLER_37_221
*1846 FILLER_37_223
*1847 FILLER_37_225
*1848 FILLER_37_243
*1849 FILLER_37_254
*1850 FILLER_37_256
*1851 FILLER_37_27
*1852 FILLER_37_273
*1853 FILLER_37_277
*1854 FILLER_37_279
*1855 FILLER_37_281
*1856 FILLER_37_283
*1857 FILLER_37_3
*1858 FILLER_37_353
*1859 FILLER_37_355
*1860 FILLER_37_375
*1861 FILLER_37_39
*1862 FILLER_37_393
*1863 FILLER_37_51
*1864 FILLER_37_55
*1865 FILLER_37_57
*1866 FILLER_37_69
*1867 FILLER_37_81
*1868 FILLER_37_93
*1869 FILLER_38_109
*1870 FILLER_38_121
*1871 FILLER_38_133
*1872 FILLER_38_137
*1873 FILLER_38_139
*1874 FILLER_38_141
*1875 FILLER_38_15
*1876 FILLER_38_153
*1877 FILLER_38_155
*1878 FILLER_38_191
*1879 FILLER_38_197
*1880 FILLER_38_248
*1881 FILLER_38_27
*1882 FILLER_38_273
*1883 FILLER_38_277
*1884 FILLER_38_279
*1885 FILLER_38_286
*1886 FILLER_38_29
*1887 FILLER_38_298
*1888 FILLER_38_3
*1889 FILLER_38_307
*1890 FILLER_38_309
*1891 FILLER_38_313
*1892 FILLER_38_405
*1893 FILLER_38_41
*1894 FILLER_38_53
*1895 FILLER_38_65
*1896 FILLER_38_77
*1897 FILLER_38_81
*1898 FILLER_38_83
*1899 FILLER_38_85
*1900 FILLER_38_97
*1901 FILLER_39_105
*1902 FILLER_39_109
*1903 FILLER_39_111
*1904 FILLER_39_113
*1905 FILLER_39_125
*1906 FILLER_39_137
*1907 FILLER_39_149
*1908 FILLER_39_15
*1909 FILLER_39_161
*1910 FILLER_39_165
*1911 FILLER_39_167
*1912 FILLER_39_169
*1913 FILLER_39_171
*1914 FILLER_39_237
*1915 FILLER_39_27
*1916 FILLER_39_274
*1917 FILLER_39_278
*1918 FILLER_39_294
*1919 FILLER_39_3
*1920 FILLER_39_306
*1921 FILLER_39_319
*1922 FILLER_39_321
*1923 FILLER_39_330
*1924 FILLER_39_334
*1925 FILLER_39_345
*1926 FILLER_39_349
*1927 FILLER_39_355
*1928 FILLER_39_359
*1929 FILLER_39_370
*1930 FILLER_39_39
*1931 FILLER_39_390
*1932 FILLER_39_401
*1933 FILLER_39_51
*1934 FILLER_39_55
*1935 FILLER_39_57
*1936 FILLER_39_69
*1937 FILLER_39_81
*1938 FILLER_39_93
*1939 FILLER_3_105
*1940 FILLER_3_109
*1941 FILLER_3_111
*1942 FILLER_3_113
*1943 FILLER_3_125
*1944 FILLER_3_137
*1945 FILLER_3_149
*1946 FILLER_3_15
*1947 FILLER_3_161
*1948 FILLER_3_165
*1949 FILLER_3_167
*1950 FILLER_3_169
*1951 FILLER_3_181
*1952 FILLER_3_193
*1953 FILLER_3_205
*1954 FILLER_3_217
*1955 FILLER_3_221
*1956 FILLER_3_223
*1957 FILLER_3_225
*1958 FILLER_3_237
*1959 FILLER_3_249
*1960 FILLER_3_261
*1961 FILLER_3_27
*1962 FILLER_3_273
*1963 FILLER_3_277
*1964 FILLER_3_279
*1965 FILLER_3_281
*1966 FILLER_3_293
*1967 FILLER_3_3
*1968 FILLER_3_305
*1969 FILLER_3_317
*1970 FILLER_3_329
*1971 FILLER_3_333
*1972 FILLER_3_335
*1973 FILLER_3_337
*1974 FILLER_3_349
*1975 FILLER_3_361
*1976 FILLER_3_373
*1977 FILLER_3_385
*1978 FILLER_3_389
*1979 FILLER_3_39
*1980 FILLER_3_391
*1981 FILLER_3_393
*1982 FILLER_3_405
*1983 FILLER_3_51
*1984 FILLER_3_55
*1985 FILLER_3_57
*1986 FILLER_3_69
*1987 FILLER_3_81
*1988 FILLER_3_93
*1989 FILLER_40_109
*1990 FILLER_40_121
*1991 FILLER_40_133
*1992 FILLER_40_137
*1993 FILLER_40_139
*1994 FILLER_40_141
*1995 FILLER_40_15
*1996 FILLER_40_153
*1997 FILLER_40_165
*1998 FILLER_40_169
*1999 FILLER_40_194
*2000 FILLER_40_219
*2001 FILLER_40_223
*2002 FILLER_40_247
*2003 FILLER_40_251
*2004 FILLER_40_259
*2005 FILLER_40_265
*2006 FILLER_40_267
*2007 FILLER_40_27
*2008 FILLER_40_270
*2009 FILLER_40_276
*2010 FILLER_40_29
*2011 FILLER_40_293
*2012 FILLER_40_295
*2013 FILLER_40_3
*2014 FILLER_40_304
*2015 FILLER_40_346
*2016 FILLER_40_355
*2017 FILLER_40_365
*2018 FILLER_40_367
*2019 FILLER_40_384
*2020 FILLER_40_388
*2021 FILLER_40_390
*2022 FILLER_40_41
*2023 FILLER_40_53
*2024 FILLER_40_65
*2025 FILLER_40_77
*2026 FILLER_40_81
*2027 FILLER_40_83
*2028 FILLER_40_85
*2029 FILLER_40_97
*2030 FILLER_41_105
*2031 FILLER_41_109
*2032 FILLER_41_111
*2033 FILLER_41_113
*2034 FILLER_41_125
*2035 FILLER_41_137
*2036 FILLER_41_149
*2037 FILLER_41_15
*2038 FILLER_41_161
*2039 FILLER_41_165
*2040 FILLER_41_167
*2041 FILLER_41_169
*2042 FILLER_41_173
*2043 FILLER_41_186
*2044 FILLER_41_211
*2045 FILLER_41_223
*2046 FILLER_41_241
*2047 FILLER_41_27
*2048 FILLER_41_288
*2049 FILLER_41_3
*2050 FILLER_41_334
*2051 FILLER_41_337
*2052 FILLER_41_373
*2053 FILLER_41_39
*2054 FILLER_41_390
*2055 FILLER_41_393
*2056 FILLER_41_402
*2057 FILLER_41_51
*2058 FILLER_41_55
*2059 FILLER_41_57
*2060 FILLER_41_69
*2061 FILLER_41_81
*2062 FILLER_41_93
*2063 FILLER_42_109
*2064 FILLER_42_121
*2065 FILLER_42_133
*2066 FILLER_42_137
*2067 FILLER_42_139
*2068 FILLER_42_141
*2069 FILLER_42_15
*2070 FILLER_42_153
*2071 FILLER_42_165
*2072 FILLER_42_173
*2073 FILLER_42_183
*2074 FILLER_42_195
*2075 FILLER_42_205
*2076 FILLER_42_217
*2077 FILLER_42_229
*2078 FILLER_42_27
*2079 FILLER_42_270
*2080 FILLER_42_29
*2081 FILLER_42_3
*2082 FILLER_42_303
*2083 FILLER_42_307
*2084 FILLER_42_309
*2085 FILLER_42_321
*2086 FILLER_42_323
*2087 FILLER_42_329
*2088 FILLER_42_346
*2089 FILLER_42_358
*2090 FILLER_42_362
*2091 FILLER_42_365
*2092 FILLER_42_377
*2093 FILLER_42_389
*2094 FILLER_42_397
*2095 FILLER_42_41
*2096 FILLER_42_53
*2097 FILLER_42_65
*2098 FILLER_42_77
*2099 FILLER_42_81
*2100 FILLER_42_83
*2101 FILLER_42_85
*2102 FILLER_42_97
*2103 FILLER_43_105
*2104 FILLER_43_109
*2105 FILLER_43_111
*2106 FILLER_43_113
*2107 FILLER_43_125
*2108 FILLER_43_137
*2109 FILLER_43_149
*2110 FILLER_43_15
*2111 FILLER_43_161
*2112 FILLER_43_165
*2113 FILLER_43_167
*2114 FILLER_43_169
*2115 FILLER_43_181
*2116 FILLER_43_193
*2117 FILLER_43_201
*2118 FILLER_43_227
*2119 FILLER_43_239
*2120 FILLER_43_251
*2121 FILLER_43_263
*2122 FILLER_43_27
*2123 FILLER_43_275
*2124 FILLER_43_281
*2125 FILLER_43_288
*2126 FILLER_43_290
*2127 FILLER_43_296
*2128 FILLER_43_3
*2129 FILLER_43_308
*2130 FILLER_43_320
*2131 FILLER_43_337
*2132 FILLER_43_349
*2133 FILLER_43_361
*2134 FILLER_43_373
*2135 FILLER_43_385
*2136 FILLER_43_389
*2137 FILLER_43_39
*2138 FILLER_43_391
*2139 FILLER_43_393
*2140 FILLER_43_405
*2141 FILLER_43_51
*2142 FILLER_43_55
*2143 FILLER_43_57
*2144 FILLER_43_69
*2145 FILLER_43_81
*2146 FILLER_43_93
*2147 FILLER_44_109
*2148 FILLER_44_121
*2149 FILLER_44_133
*2150 FILLER_44_137
*2151 FILLER_44_139
*2152 FILLER_44_141
*2153 FILLER_44_15
*2154 FILLER_44_153
*2155 FILLER_44_165
*2156 FILLER_44_177
*2157 FILLER_44_189
*2158 FILLER_44_193
*2159 FILLER_44_195
*2160 FILLER_44_197
*2161 FILLER_44_209
*2162 FILLER_44_211
*2163 FILLER_44_228
*2164 FILLER_44_240
*2165 FILLER_44_253
*2166 FILLER_44_265
*2167 FILLER_44_27
*2168 FILLER_44_29
*2169 FILLER_44_3
*2170 FILLER_44_302
*2171 FILLER_44_306
*2172 FILLER_44_309
*2173 FILLER_44_321
*2174 FILLER_44_333
*2175 FILLER_44_345
*2176 FILLER_44_357
*2177 FILLER_44_361
*2178 FILLER_44_363
*2179 FILLER_44_365
*2180 FILLER_44_377
*2181 FILLER_44_389
*2182 FILLER_44_401
*2183 FILLER_44_405
*2184 FILLER_44_41
*2185 FILLER_44_53
*2186 FILLER_44_65
*2187 FILLER_44_77
*2188 FILLER_44_81
*2189 FILLER_44_83
*2190 FILLER_44_85
*2191 FILLER_44_97
*2192 FILLER_45_105
*2193 FILLER_45_109
*2194 FILLER_45_111
*2195 FILLER_45_113
*2196 FILLER_45_125
*2197 FILLER_45_137
*2198 FILLER_45_149
*2199 FILLER_45_15
*2200 FILLER_45_161
*2201 FILLER_45_165
*2202 FILLER_45_167
*2203 FILLER_45_169
*2204 FILLER_45_181
*2205 FILLER_45_193
*2206 FILLER_45_205
*2207 FILLER_45_217
*2208 FILLER_45_221
*2209 FILLER_45_223
*2210 FILLER_45_225
*2211 FILLER_45_237
*2212 FILLER_45_249
*2213 FILLER_45_261
*2214 FILLER_45_269
*2215 FILLER_45_27
*2216 FILLER_45_271
*2217 FILLER_45_286
*2218 FILLER_45_3
*2219 FILLER_45_304
*2220 FILLER_45_316
*2221 FILLER_45_328
*2222 FILLER_45_337
*2223 FILLER_45_349
*2224 FILLER_45_361
*2225 FILLER_45_373
*2226 FILLER_45_385
*2227 FILLER_45_389
*2228 FILLER_45_39
*2229 FILLER_45_391
*2230 FILLER_45_393
*2231 FILLER_45_405
*2232 FILLER_45_51
*2233 FILLER_45_55
*2234 FILLER_45_57
*2235 FILLER_45_69
*2236 FILLER_45_81
*2237 FILLER_45_93
*2238 FILLER_46_109
*2239 FILLER_46_121
*2240 FILLER_46_133
*2241 FILLER_46_137
*2242 FILLER_46_139
*2243 FILLER_46_141
*2244 FILLER_46_15
*2245 FILLER_46_153
*2246 FILLER_46_165
*2247 FILLER_46_177
*2248 FILLER_46_189
*2249 FILLER_46_193
*2250 FILLER_46_195
*2251 FILLER_46_197
*2252 FILLER_46_209
*2253 FILLER_46_221
*2254 FILLER_46_233
*2255 FILLER_46_245
*2256 FILLER_46_249
*2257 FILLER_46_251
*2258 FILLER_46_253
*2259 FILLER_46_265
*2260 FILLER_46_27
*2261 FILLER_46_277
*2262 FILLER_46_279
*2263 FILLER_46_288
*2264 FILLER_46_29
*2265 FILLER_46_290
*2266 FILLER_46_299
*2267 FILLER_46_3
*2268 FILLER_46_307
*2269 FILLER_46_309
*2270 FILLER_46_321
*2271 FILLER_46_333
*2272 FILLER_46_345
*2273 FILLER_46_357
*2274 FILLER_46_361
*2275 FILLER_46_363
*2276 FILLER_46_365
*2277 FILLER_46_377
*2278 FILLER_46_389
*2279 FILLER_46_401
*2280 FILLER_46_405
*2281 FILLER_46_41
*2282 FILLER_46_53
*2283 FILLER_46_65
*2284 FILLER_46_77
*2285 FILLER_46_81
*2286 FILLER_46_83
*2287 FILLER_46_85
*2288 FILLER_46_97
*2289 FILLER_47_105
*2290 FILLER_47_109
*2291 FILLER_47_111
*2292 FILLER_47_113
*2293 FILLER_47_125
*2294 FILLER_47_137
*2295 FILLER_47_149
*2296 FILLER_47_15
*2297 FILLER_47_161
*2298 FILLER_47_165
*2299 FILLER_47_167
*2300 FILLER_47_169
*2301 FILLER_47_181
*2302 FILLER_47_193
*2303 FILLER_47_205
*2304 FILLER_47_217
*2305 FILLER_47_221
*2306 FILLER_47_223
*2307 FILLER_47_225
*2308 FILLER_47_237
*2309 FILLER_47_249
*2310 FILLER_47_261
*2311 FILLER_47_27
*2312 FILLER_47_273
*2313 FILLER_47_277
*2314 FILLER_47_279
*2315 FILLER_47_281
*2316 FILLER_47_293
*2317 FILLER_47_3
*2318 FILLER_47_305
*2319 FILLER_47_317
*2320 FILLER_47_329
*2321 FILLER_47_333
*2322 FILLER_47_335
*2323 FILLER_47_337
*2324 FILLER_47_349
*2325 FILLER_47_361
*2326 FILLER_47_373
*2327 FILLER_47_385
*2328 FILLER_47_389
*2329 FILLER_47_39
*2330 FILLER_47_391
*2331 FILLER_47_393
*2332 FILLER_47_405
*2333 FILLER_47_51
*2334 FILLER_47_55
*2335 FILLER_47_57
*2336 FILLER_47_69
*2337 FILLER_47_81
*2338 FILLER_47_93
*2339 FILLER_48_109
*2340 FILLER_48_121
*2341 FILLER_48_133
*2342 FILLER_48_137
*2343 FILLER_48_139
*2344 FILLER_48_141
*2345 FILLER_48_15
*2346 FILLER_48_153
*2347 FILLER_48_165
*2348 FILLER_48_177
*2349 FILLER_48_189
*2350 FILLER_48_193
*2351 FILLER_48_195
*2352 FILLER_48_197
*2353 FILLER_48_209
*2354 FILLER_48_221
*2355 FILLER_48_233
*2356 FILLER_48_245
*2357 FILLER_48_249
*2358 FILLER_48_251
*2359 FILLER_48_253
*2360 FILLER_48_265
*2361 FILLER_48_27
*2362 FILLER_48_277
*2363 FILLER_48_289
*2364 FILLER_48_29
*2365 FILLER_48_3
*2366 FILLER_48_301
*2367 FILLER_48_305
*2368 FILLER_48_307
*2369 FILLER_48_309
*2370 FILLER_48_321
*2371 FILLER_48_333
*2372 FILLER_48_345
*2373 FILLER_48_357
*2374 FILLER_48_361
*2375 FILLER_48_363
*2376 FILLER_48_365
*2377 FILLER_48_377
*2378 FILLER_48_389
*2379 FILLER_48_401
*2380 FILLER_48_405
*2381 FILLER_48_41
*2382 FILLER_48_53
*2383 FILLER_48_65
*2384 FILLER_48_77
*2385 FILLER_48_81
*2386 FILLER_48_83
*2387 FILLER_48_85
*2388 FILLER_48_97
*2389 FILLER_49_105
*2390 FILLER_49_109
*2391 FILLER_49_111
*2392 FILLER_49_113
*2393 FILLER_49_125
*2394 FILLER_49_137
*2395 FILLER_49_149
*2396 FILLER_49_15
*2397 FILLER_49_161
*2398 FILLER_49_165
*2399 FILLER_49_167
*2400 FILLER_49_169
*2401 FILLER_49_181
*2402 FILLER_49_193
*2403 FILLER_49_205
*2404 FILLER_49_217
*2405 FILLER_49_221
*2406 FILLER_49_223
*2407 FILLER_49_225
*2408 FILLER_49_237
*2409 FILLER_49_249
*2410 FILLER_49_261
*2411 FILLER_49_27
*2412 FILLER_49_273
*2413 FILLER_49_277
*2414 FILLER_49_279
*2415 FILLER_49_281
*2416 FILLER_49_293
*2417 FILLER_49_3
*2418 FILLER_49_305
*2419 FILLER_49_317
*2420 FILLER_49_329
*2421 FILLER_49_333
*2422 FILLER_49_335
*2423 FILLER_49_337
*2424 FILLER_49_349
*2425 FILLER_49_361
*2426 FILLER_49_373
*2427 FILLER_49_385
*2428 FILLER_49_389
*2429 FILLER_49_39
*2430 FILLER_49_391
*2431 FILLER_49_393
*2432 FILLER_49_405
*2433 FILLER_49_51
*2434 FILLER_49_55
*2435 FILLER_49_57
*2436 FILLER_49_69
*2437 FILLER_49_81
*2438 FILLER_49_93
*2439 FILLER_4_109
*2440 FILLER_4_121
*2441 FILLER_4_133
*2442 FILLER_4_137
*2443 FILLER_4_139
*2444 FILLER_4_141
*2445 FILLER_4_15
*2446 FILLER_4_153
*2447 FILLER_4_165
*2448 FILLER_4_177
*2449 FILLER_4_189
*2450 FILLER_4_193
*2451 FILLER_4_195
*2452 FILLER_4_197
*2453 FILLER_4_209
*2454 FILLER_4_221
*2455 FILLER_4_233
*2456 FILLER_4_245
*2457 FILLER_4_249
*2458 FILLER_4_251
*2459 FILLER_4_253
*2460 FILLER_4_265
*2461 FILLER_4_27
*2462 FILLER_4_277
*2463 FILLER_4_289
*2464 FILLER_4_29
*2465 FILLER_4_3
*2466 FILLER_4_301
*2467 FILLER_4_305
*2468 FILLER_4_307
*2469 FILLER_4_309
*2470 FILLER_4_321
*2471 FILLER_4_333
*2472 FILLER_4_345
*2473 FILLER_4_357
*2474 FILLER_4_361
*2475 FILLER_4_363
*2476 FILLER_4_365
*2477 FILLER_4_377
*2478 FILLER_4_389
*2479 FILLER_4_401
*2480 FILLER_4_405
*2481 FILLER_4_41
*2482 FILLER_4_53
*2483 FILLER_4_65
*2484 FILLER_4_77
*2485 FILLER_4_81
*2486 FILLER_4_83
*2487 FILLER_4_85
*2488 FILLER_4_97
*2489 FILLER_50_109
*2490 FILLER_50_121
*2491 FILLER_50_133
*2492 FILLER_50_137
*2493 FILLER_50_139
*2494 FILLER_50_141
*2495 FILLER_50_15
*2496 FILLER_50_153
*2497 FILLER_50_165
*2498 FILLER_50_177
*2499 FILLER_50_189
*2500 FILLER_50_193
*2501 FILLER_50_195
*2502 FILLER_50_197
*2503 FILLER_50_209
*2504 FILLER_50_221
*2505 FILLER_50_233
*2506 FILLER_50_245
*2507 FILLER_50_249
*2508 FILLER_50_251
*2509 FILLER_50_253
*2510 FILLER_50_265
*2511 FILLER_50_27
*2512 FILLER_50_277
*2513 FILLER_50_289
*2514 FILLER_50_29
*2515 FILLER_50_3
*2516 FILLER_50_301
*2517 FILLER_50_305
*2518 FILLER_50_307
*2519 FILLER_50_309
*2520 FILLER_50_321
*2521 FILLER_50_333
*2522 FILLER_50_345
*2523 FILLER_50_357
*2524 FILLER_50_361
*2525 FILLER_50_363
*2526 FILLER_50_365
*2527 FILLER_50_377
*2528 FILLER_50_389
*2529 FILLER_50_401
*2530 FILLER_50_405
*2531 FILLER_50_41
*2532 FILLER_50_53
*2533 FILLER_50_65
*2534 FILLER_50_77
*2535 FILLER_50_81
*2536 FILLER_50_83
*2537 FILLER_50_85
*2538 FILLER_50_97
*2539 FILLER_51_105
*2540 FILLER_51_109
*2541 FILLER_51_111
*2542 FILLER_51_113
*2543 FILLER_51_125
*2544 FILLER_51_137
*2545 FILLER_51_149
*2546 FILLER_51_15
*2547 FILLER_51_161
*2548 FILLER_51_165
*2549 FILLER_51_167
*2550 FILLER_51_169
*2551 FILLER_51_181
*2552 FILLER_51_193
*2553 FILLER_51_205
*2554 FILLER_51_217
*2555 FILLER_51_221
*2556 FILLER_51_223
*2557 FILLER_51_225
*2558 FILLER_51_237
*2559 FILLER_51_249
*2560 FILLER_51_261
*2561 FILLER_51_27
*2562 FILLER_51_273
*2563 FILLER_51_277
*2564 FILLER_51_279
*2565 FILLER_51_281
*2566 FILLER_51_293
*2567 FILLER_51_3
*2568 FILLER_51_305
*2569 FILLER_51_317
*2570 FILLER_51_329
*2571 FILLER_51_333
*2572 FILLER_51_335
*2573 FILLER_51_337
*2574 FILLER_51_349
*2575 FILLER_51_361
*2576 FILLER_51_373
*2577 FILLER_51_385
*2578 FILLER_51_389
*2579 FILLER_51_39
*2580 FILLER_51_391
*2581 FILLER_51_393
*2582 FILLER_51_405
*2583 FILLER_51_51
*2584 FILLER_51_55
*2585 FILLER_51_57
*2586 FILLER_51_69
*2587 FILLER_51_81
*2588 FILLER_51_93
*2589 FILLER_52_109
*2590 FILLER_52_121
*2591 FILLER_52_133
*2592 FILLER_52_137
*2593 FILLER_52_139
*2594 FILLER_52_141
*2595 FILLER_52_15
*2596 FILLER_52_153
*2597 FILLER_52_165
*2598 FILLER_52_177
*2599 FILLER_52_189
*2600 FILLER_52_193
*2601 FILLER_52_195
*2602 FILLER_52_197
*2603 FILLER_52_209
*2604 FILLER_52_221
*2605 FILLER_52_233
*2606 FILLER_52_245
*2607 FILLER_52_249
*2608 FILLER_52_251
*2609 FILLER_52_253
*2610 FILLER_52_265
*2611 FILLER_52_27
*2612 FILLER_52_277
*2613 FILLER_52_289
*2614 FILLER_52_29
*2615 FILLER_52_3
*2616 FILLER_52_301
*2617 FILLER_52_305
*2618 FILLER_52_307
*2619 FILLER_52_309
*2620 FILLER_52_321
*2621 FILLER_52_333
*2622 FILLER_52_345
*2623 FILLER_52_357
*2624 FILLER_52_361
*2625 FILLER_52_363
*2626 FILLER_52_365
*2627 FILLER_52_377
*2628 FILLER_52_389
*2629 FILLER_52_401
*2630 FILLER_52_405
*2631 FILLER_52_41
*2632 FILLER_52_53
*2633 FILLER_52_65
*2634 FILLER_52_77
*2635 FILLER_52_81
*2636 FILLER_52_83
*2637 FILLER_52_85
*2638 FILLER_52_97
*2639 FILLER_53_105
*2640 FILLER_53_109
*2641 FILLER_53_111
*2642 FILLER_53_113
*2643 FILLER_53_125
*2644 FILLER_53_137
*2645 FILLER_53_149
*2646 FILLER_53_15
*2647 FILLER_53_161
*2648 FILLER_53_165
*2649 FILLER_53_167
*2650 FILLER_53_169
*2651 FILLER_53_181
*2652 FILLER_53_193
*2653 FILLER_53_205
*2654 FILLER_53_217
*2655 FILLER_53_221
*2656 FILLER_53_223
*2657 FILLER_53_225
*2658 FILLER_53_237
*2659 FILLER_53_249
*2660 FILLER_53_261
*2661 FILLER_53_27
*2662 FILLER_53_273
*2663 FILLER_53_277
*2664 FILLER_53_279
*2665 FILLER_53_281
*2666 FILLER_53_293
*2667 FILLER_53_3
*2668 FILLER_53_305
*2669 FILLER_53_317
*2670 FILLER_53_329
*2671 FILLER_53_333
*2672 FILLER_53_335
*2673 FILLER_53_337
*2674 FILLER_53_349
*2675 FILLER_53_361
*2676 FILLER_53_373
*2677 FILLER_53_385
*2678 FILLER_53_389
*2679 FILLER_53_39
*2680 FILLER_53_391
*2681 FILLER_53_393
*2682 FILLER_53_405
*2683 FILLER_53_51
*2684 FILLER_53_55
*2685 FILLER_53_57
*2686 FILLER_53_69
*2687 FILLER_53_81
*2688 FILLER_53_93
*2689 FILLER_54_109
*2690 FILLER_54_121
*2691 FILLER_54_133
*2692 FILLER_54_137
*2693 FILLER_54_139
*2694 FILLER_54_141
*2695 FILLER_54_15
*2696 FILLER_54_153
*2697 FILLER_54_165
*2698 FILLER_54_177
*2699 FILLER_54_189
*2700 FILLER_54_193
*2701 FILLER_54_195
*2702 FILLER_54_197
*2703 FILLER_54_209
*2704 FILLER_54_221
*2705 FILLER_54_233
*2706 FILLER_54_245
*2707 FILLER_54_249
*2708 FILLER_54_251
*2709 FILLER_54_253
*2710 FILLER_54_265
*2711 FILLER_54_27
*2712 FILLER_54_277
*2713 FILLER_54_289
*2714 FILLER_54_29
*2715 FILLER_54_3
*2716 FILLER_54_301
*2717 FILLER_54_305
*2718 FILLER_54_307
*2719 FILLER_54_309
*2720 FILLER_54_321
*2721 FILLER_54_333
*2722 FILLER_54_345
*2723 FILLER_54_357
*2724 FILLER_54_361
*2725 FILLER_54_363
*2726 FILLER_54_365
*2727 FILLER_54_377
*2728 FILLER_54_389
*2729 FILLER_54_401
*2730 FILLER_54_405
*2731 FILLER_54_41
*2732 FILLER_54_53
*2733 FILLER_54_65
*2734 FILLER_54_77
*2735 FILLER_54_81
*2736 FILLER_54_83
*2737 FILLER_54_85
*2738 FILLER_54_97
*2739 FILLER_55_105
*2740 FILLER_55_109
*2741 FILLER_55_111
*2742 FILLER_55_113
*2743 FILLER_55_125
*2744 FILLER_55_137
*2745 FILLER_55_149
*2746 FILLER_55_15
*2747 FILLER_55_161
*2748 FILLER_55_165
*2749 FILLER_55_167
*2750 FILLER_55_169
*2751 FILLER_55_181
*2752 FILLER_55_193
*2753 FILLER_55_205
*2754 FILLER_55_217
*2755 FILLER_55_221
*2756 FILLER_55_223
*2757 FILLER_55_225
*2758 FILLER_55_237
*2759 FILLER_55_249
*2760 FILLER_55_261
*2761 FILLER_55_27
*2762 FILLER_55_273
*2763 FILLER_55_277
*2764 FILLER_55_279
*2765 FILLER_55_281
*2766 FILLER_55_293
*2767 FILLER_55_3
*2768 FILLER_55_305
*2769 FILLER_55_317
*2770 FILLER_55_329
*2771 FILLER_55_333
*2772 FILLER_55_335
*2773 FILLER_55_337
*2774 FILLER_55_349
*2775 FILLER_55_361
*2776 FILLER_55_373
*2777 FILLER_55_385
*2778 FILLER_55_389
*2779 FILLER_55_39
*2780 FILLER_55_391
*2781 FILLER_55_393
*2782 FILLER_55_405
*2783 FILLER_55_51
*2784 FILLER_55_55
*2785 FILLER_55_57
*2786 FILLER_55_69
*2787 FILLER_55_81
*2788 FILLER_55_93
*2789 FILLER_56_109
*2790 FILLER_56_121
*2791 FILLER_56_133
*2792 FILLER_56_137
*2793 FILLER_56_139
*2794 FILLER_56_141
*2795 FILLER_56_15
*2796 FILLER_56_153
*2797 FILLER_56_165
*2798 FILLER_56_177
*2799 FILLER_56_189
*2800 FILLER_56_193
*2801 FILLER_56_195
*2802 FILLER_56_197
*2803 FILLER_56_209
*2804 FILLER_56_221
*2805 FILLER_56_233
*2806 FILLER_56_245
*2807 FILLER_56_249
*2808 FILLER_56_251
*2809 FILLER_56_253
*2810 FILLER_56_265
*2811 FILLER_56_27
*2812 FILLER_56_277
*2813 FILLER_56_289
*2814 FILLER_56_29
*2815 FILLER_56_3
*2816 FILLER_56_301
*2817 FILLER_56_305
*2818 FILLER_56_307
*2819 FILLER_56_309
*2820 FILLER_56_321
*2821 FILLER_56_333
*2822 FILLER_56_345
*2823 FILLER_56_357
*2824 FILLER_56_361
*2825 FILLER_56_363
*2826 FILLER_56_365
*2827 FILLER_56_377
*2828 FILLER_56_389
*2829 FILLER_56_401
*2830 FILLER_56_405
*2831 FILLER_56_41
*2832 FILLER_56_53
*2833 FILLER_56_65
*2834 FILLER_56_77
*2835 FILLER_56_81
*2836 FILLER_56_83
*2837 FILLER_56_85
*2838 FILLER_56_97
*2839 FILLER_57_105
*2840 FILLER_57_109
*2841 FILLER_57_111
*2842 FILLER_57_113
*2843 FILLER_57_125
*2844 FILLER_57_137
*2845 FILLER_57_149
*2846 FILLER_57_15
*2847 FILLER_57_161
*2848 FILLER_57_165
*2849 FILLER_57_167
*2850 FILLER_57_169
*2851 FILLER_57_181
*2852 FILLER_57_193
*2853 FILLER_57_205
*2854 FILLER_57_217
*2855 FILLER_57_221
*2856 FILLER_57_223
*2857 FILLER_57_225
*2858 FILLER_57_237
*2859 FILLER_57_249
*2860 FILLER_57_261
*2861 FILLER_57_27
*2862 FILLER_57_273
*2863 FILLER_57_277
*2864 FILLER_57_279
*2865 FILLER_57_281
*2866 FILLER_57_293
*2867 FILLER_57_3
*2868 FILLER_57_305
*2869 FILLER_57_317
*2870 FILLER_57_329
*2871 FILLER_57_333
*2872 FILLER_57_335
*2873 FILLER_57_337
*2874 FILLER_57_349
*2875 FILLER_57_361
*2876 FILLER_57_373
*2877 FILLER_57_385
*2878 FILLER_57_389
*2879 FILLER_57_39
*2880 FILLER_57_391
*2881 FILLER_57_393
*2882 FILLER_57_405
*2883 FILLER_57_51
*2884 FILLER_57_55
*2885 FILLER_57_57
*2886 FILLER_57_69
*2887 FILLER_57_81
*2888 FILLER_57_93
*2889 FILLER_58_109
*2890 FILLER_58_121
*2891 FILLER_58_133
*2892 FILLER_58_137
*2893 FILLER_58_139
*2894 FILLER_58_141
*2895 FILLER_58_15
*2896 FILLER_58_153
*2897 FILLER_58_165
*2898 FILLER_58_177
*2899 FILLER_58_189
*2900 FILLER_58_193
*2901 FILLER_58_195
*2902 FILLER_58_197
*2903 FILLER_58_209
*2904 FILLER_58_221
*2905 FILLER_58_233
*2906 FILLER_58_245
*2907 FILLER_58_249
*2908 FILLER_58_251
*2909 FILLER_58_253
*2910 FILLER_58_265
*2911 FILLER_58_27
*2912 FILLER_58_277
*2913 FILLER_58_289
*2914 FILLER_58_29
*2915 FILLER_58_3
*2916 FILLER_58_301
*2917 FILLER_58_305
*2918 FILLER_58_307
*2919 FILLER_58_309
*2920 FILLER_58_321
*2921 FILLER_58_333
*2922 FILLER_58_345
*2923 FILLER_58_357
*2924 FILLER_58_361
*2925 FILLER_58_363
*2926 FILLER_58_365
*2927 FILLER_58_377
*2928 FILLER_58_389
*2929 FILLER_58_401
*2930 FILLER_58_405
*2931 FILLER_58_41
*2932 FILLER_58_53
*2933 FILLER_58_65
*2934 FILLER_58_77
*2935 FILLER_58_81
*2936 FILLER_58_83
*2937 FILLER_58_85
*2938 FILLER_58_97
*2939 FILLER_59_105
*2940 FILLER_59_109
*2941 FILLER_59_111
*2942 FILLER_59_113
*2943 FILLER_59_125
*2944 FILLER_59_137
*2945 FILLER_59_149
*2946 FILLER_59_15
*2947 FILLER_59_161
*2948 FILLER_59_165
*2949 FILLER_59_167
*2950 FILLER_59_169
*2951 FILLER_59_181
*2952 FILLER_59_193
*2953 FILLER_59_205
*2954 FILLER_59_217
*2955 FILLER_59_221
*2956 FILLER_59_223
*2957 FILLER_59_225
*2958 FILLER_59_237
*2959 FILLER_59_249
*2960 FILLER_59_261
*2961 FILLER_59_27
*2962 FILLER_59_273
*2963 FILLER_59_277
*2964 FILLER_59_279
*2965 FILLER_59_281
*2966 FILLER_59_293
*2967 FILLER_59_3
*2968 FILLER_59_305
*2969 FILLER_59_317
*2970 FILLER_59_329
*2971 FILLER_59_333
*2972 FILLER_59_335
*2973 FILLER_59_337
*2974 FILLER_59_349
*2975 FILLER_59_361
*2976 FILLER_59_373
*2977 FILLER_59_385
*2978 FILLER_59_389
*2979 FILLER_59_39
*2980 FILLER_59_391
*2981 FILLER_59_393
*2982 FILLER_59_405
*2983 FILLER_59_51
*2984 FILLER_59_55
*2985 FILLER_59_57
*2986 FILLER_59_69
*2987 FILLER_59_81
*2988 FILLER_59_93
*2989 FILLER_5_105
*2990 FILLER_5_109
*2991 FILLER_5_111
*2992 FILLER_5_113
*2993 FILLER_5_125
*2994 FILLER_5_137
*2995 FILLER_5_149
*2996 FILLER_5_15
*2997 FILLER_5_161
*2998 FILLER_5_165
*2999 FILLER_5_167
*3000 FILLER_5_169
*3001 FILLER_5_181
*3002 FILLER_5_193
*3003 FILLER_5_205
*3004 FILLER_5_217
*3005 FILLER_5_221
*3006 FILLER_5_223
*3007 FILLER_5_225
*3008 FILLER_5_237
*3009 FILLER_5_249
*3010 FILLER_5_261
*3011 FILLER_5_27
*3012 FILLER_5_273
*3013 FILLER_5_277
*3014 FILLER_5_279
*3015 FILLER_5_281
*3016 FILLER_5_293
*3017 FILLER_5_3
*3018 FILLER_5_305
*3019 FILLER_5_317
*3020 FILLER_5_329
*3021 FILLER_5_333
*3022 FILLER_5_335
*3023 FILLER_5_337
*3024 FILLER_5_349
*3025 FILLER_5_361
*3026 FILLER_5_373
*3027 FILLER_5_385
*3028 FILLER_5_389
*3029 FILLER_5_39
*3030 FILLER_5_391
*3031 FILLER_5_393
*3032 FILLER_5_405
*3033 FILLER_5_51
*3034 FILLER_5_55
*3035 FILLER_5_57
*3036 FILLER_5_69
*3037 FILLER_5_81
*3038 FILLER_5_93
*3039 FILLER_60_109
*3040 FILLER_60_121
*3041 FILLER_60_133
*3042 FILLER_60_137
*3043 FILLER_60_139
*3044 FILLER_60_141
*3045 FILLER_60_15
*3046 FILLER_60_153
*3047 FILLER_60_165
*3048 FILLER_60_177
*3049 FILLER_60_189
*3050 FILLER_60_193
*3051 FILLER_60_195
*3052 FILLER_60_197
*3053 FILLER_60_209
*3054 FILLER_60_221
*3055 FILLER_60_233
*3056 FILLER_60_245
*3057 FILLER_60_249
*3058 FILLER_60_251
*3059 FILLER_60_253
*3060 FILLER_60_265
*3061 FILLER_60_27
*3062 FILLER_60_277
*3063 FILLER_60_289
*3064 FILLER_60_29
*3065 FILLER_60_3
*3066 FILLER_60_301
*3067 FILLER_60_305
*3068 FILLER_60_307
*3069 FILLER_60_309
*3070 FILLER_60_321
*3071 FILLER_60_333
*3072 FILLER_60_345
*3073 FILLER_60_357
*3074 FILLER_60_361
*3075 FILLER_60_363
*3076 FILLER_60_365
*3077 FILLER_60_377
*3078 FILLER_60_389
*3079 FILLER_60_401
*3080 FILLER_60_405
*3081 FILLER_60_41
*3082 FILLER_60_53
*3083 FILLER_60_65
*3084 FILLER_60_77
*3085 FILLER_60_81
*3086 FILLER_60_83
*3087 FILLER_60_85
*3088 FILLER_60_97
*3089 FILLER_61_105
*3090 FILLER_61_109
*3091 FILLER_61_111
*3092 FILLER_61_113
*3093 FILLER_61_125
*3094 FILLER_61_137
*3095 FILLER_61_149
*3096 FILLER_61_15
*3097 FILLER_61_161
*3098 FILLER_61_165
*3099 FILLER_61_167
*3100 FILLER_61_169
*3101 FILLER_61_181
*3102 FILLER_61_193
*3103 FILLER_61_205
*3104 FILLER_61_217
*3105 FILLER_61_221
*3106 FILLER_61_223
*3107 FILLER_61_225
*3108 FILLER_61_237
*3109 FILLER_61_249
*3110 FILLER_61_261
*3111 FILLER_61_27
*3112 FILLER_61_273
*3113 FILLER_61_277
*3114 FILLER_61_279
*3115 FILLER_61_281
*3116 FILLER_61_293
*3117 FILLER_61_3
*3118 FILLER_61_305
*3119 FILLER_61_317
*3120 FILLER_61_329
*3121 FILLER_61_333
*3122 FILLER_61_335
*3123 FILLER_61_337
*3124 FILLER_61_349
*3125 FILLER_61_361
*3126 FILLER_61_373
*3127 FILLER_61_385
*3128 FILLER_61_389
*3129 FILLER_61_39
*3130 FILLER_61_391
*3131 FILLER_61_393
*3132 FILLER_61_405
*3133 FILLER_61_51
*3134 FILLER_61_55
*3135 FILLER_61_57
*3136 FILLER_61_69
*3137 FILLER_61_81
*3138 FILLER_61_93
*3139 FILLER_62_109
*3140 FILLER_62_121
*3141 FILLER_62_133
*3142 FILLER_62_137
*3143 FILLER_62_139
*3144 FILLER_62_141
*3145 FILLER_62_15
*3146 FILLER_62_153
*3147 FILLER_62_165
*3148 FILLER_62_177
*3149 FILLER_62_189
*3150 FILLER_62_193
*3151 FILLER_62_195
*3152 FILLER_62_197
*3153 FILLER_62_209
*3154 FILLER_62_221
*3155 FILLER_62_233
*3156 FILLER_62_245
*3157 FILLER_62_249
*3158 FILLER_62_251
*3159 FILLER_62_253
*3160 FILLER_62_265
*3161 FILLER_62_27
*3162 FILLER_62_277
*3163 FILLER_62_289
*3164 FILLER_62_29
*3165 FILLER_62_3
*3166 FILLER_62_301
*3167 FILLER_62_305
*3168 FILLER_62_307
*3169 FILLER_62_309
*3170 FILLER_62_321
*3171 FILLER_62_333
*3172 FILLER_62_345
*3173 FILLER_62_357
*3174 FILLER_62_361
*3175 FILLER_62_363
*3176 FILLER_62_365
*3177 FILLER_62_377
*3178 FILLER_62_389
*3179 FILLER_62_401
*3180 FILLER_62_405
*3181 FILLER_62_41
*3182 FILLER_62_53
*3183 FILLER_62_65
*3184 FILLER_62_77
*3185 FILLER_62_81
*3186 FILLER_62_83
*3187 FILLER_62_85
*3188 FILLER_62_97
*3189 FILLER_63_105
*3190 FILLER_63_109
*3191 FILLER_63_111
*3192 FILLER_63_113
*3193 FILLER_63_125
*3194 FILLER_63_137
*3195 FILLER_63_149
*3196 FILLER_63_15
*3197 FILLER_63_161
*3198 FILLER_63_165
*3199 FILLER_63_167
*3200 FILLER_63_169
*3201 FILLER_63_181
*3202 FILLER_63_193
*3203 FILLER_63_205
*3204 FILLER_63_217
*3205 FILLER_63_221
*3206 FILLER_63_223
*3207 FILLER_63_225
*3208 FILLER_63_237
*3209 FILLER_63_249
*3210 FILLER_63_261
*3211 FILLER_63_27
*3212 FILLER_63_273
*3213 FILLER_63_277
*3214 FILLER_63_279
*3215 FILLER_63_281
*3216 FILLER_63_293
*3217 FILLER_63_3
*3218 FILLER_63_305
*3219 FILLER_63_317
*3220 FILLER_63_329
*3221 FILLER_63_333
*3222 FILLER_63_335
*3223 FILLER_63_337
*3224 FILLER_63_349
*3225 FILLER_63_361
*3226 FILLER_63_373
*3227 FILLER_63_385
*3228 FILLER_63_389
*3229 FILLER_63_39
*3230 FILLER_63_391
*3231 FILLER_63_393
*3232 FILLER_63_405
*3233 FILLER_63_51
*3234 FILLER_63_55
*3235 FILLER_63_57
*3236 FILLER_63_69
*3237 FILLER_63_81
*3238 FILLER_63_93
*3239 FILLER_64_109
*3240 FILLER_64_111
*3241 FILLER_64_113
*3242 FILLER_64_125
*3243 FILLER_64_137
*3244 FILLER_64_139
*3245 FILLER_64_141
*3246 FILLER_64_15
*3247 FILLER_64_153
*3248 FILLER_64_165
*3249 FILLER_64_167
*3250 FILLER_64_169
*3251 FILLER_64_181
*3252 FILLER_64_193
*3253 FILLER_64_195
*3254 FILLER_64_197
*3255 FILLER_64_209
*3256 FILLER_64_217
*3257 FILLER_64_221
*3258 FILLER_64_223
*3259 FILLER_64_225
*3260 FILLER_64_237
*3261 FILLER_64_249
*3262 FILLER_64_251
*3263 FILLER_64_253
*3264 FILLER_64_265
*3265 FILLER_64_27
*3266 FILLER_64_277
*3267 FILLER_64_279
*3268 FILLER_64_281
*3269 FILLER_64_29
*3270 FILLER_64_293
*3271 FILLER_64_3
*3272 FILLER_64_305
*3273 FILLER_64_307
*3274 FILLER_64_309
*3275 FILLER_64_321
*3276 FILLER_64_333
*3277 FILLER_64_335
*3278 FILLER_64_337
*3279 FILLER_64_349
*3280 FILLER_64_361
*3281 FILLER_64_363
*3282 FILLER_64_365
*3283 FILLER_64_377
*3284 FILLER_64_389
*3285 FILLER_64_391
*3286 FILLER_64_393
*3287 FILLER_64_405
*3288 FILLER_64_41
*3289 FILLER_64_53
*3290 FILLER_64_55
*3291 FILLER_64_57
*3292 FILLER_64_69
*3293 FILLER_64_81
*3294 FILLER_64_83
*3295 FILLER_64_85
*3296 FILLER_64_97
*3297 FILLER_6_109
*3298 FILLER_6_121
*3299 FILLER_6_133
*3300 FILLER_6_137
*3301 FILLER_6_139
*3302 FILLER_6_141
*3303 FILLER_6_15
*3304 FILLER_6_153
*3305 FILLER_6_165
*3306 FILLER_6_177
*3307 FILLER_6_189
*3308 FILLER_6_193
*3309 FILLER_6_195
*3310 FILLER_6_197
*3311 FILLER_6_209
*3312 FILLER_6_221
*3313 FILLER_6_233
*3314 FILLER_6_245
*3315 FILLER_6_249
*3316 FILLER_6_251
*3317 FILLER_6_253
*3318 FILLER_6_265
*3319 FILLER_6_27
*3320 FILLER_6_277
*3321 FILLER_6_289
*3322 FILLER_6_29
*3323 FILLER_6_3
*3324 FILLER_6_301
*3325 FILLER_6_305
*3326 FILLER_6_307
*3327 FILLER_6_309
*3328 FILLER_6_321
*3329 FILLER_6_333
*3330 FILLER_6_345
*3331 FILLER_6_357
*3332 FILLER_6_361
*3333 FILLER_6_363
*3334 FILLER_6_365
*3335 FILLER_6_377
*3336 FILLER_6_389
*3337 FILLER_6_401
*3338 FILLER_6_405
*3339 FILLER_6_41
*3340 FILLER_6_53
*3341 FILLER_6_65
*3342 FILLER_6_77
*3343 FILLER_6_81
*3344 FILLER_6_83
*3345 FILLER_6_85
*3346 FILLER_6_97
*3347 FILLER_7_105
*3348 FILLER_7_109
*3349 FILLER_7_111
*3350 FILLER_7_113
*3351 FILLER_7_125
*3352 FILLER_7_137
*3353 FILLER_7_149
*3354 FILLER_7_15
*3355 FILLER_7_161
*3356 FILLER_7_165
*3357 FILLER_7_167
*3358 FILLER_7_169
*3359 FILLER_7_181
*3360 FILLER_7_193
*3361 FILLER_7_205
*3362 FILLER_7_217
*3363 FILLER_7_221
*3364 FILLER_7_223
*3365 FILLER_7_225
*3366 FILLER_7_237
*3367 FILLER_7_249
*3368 FILLER_7_261
*3369 FILLER_7_27
*3370 FILLER_7_273
*3371 FILLER_7_277
*3372 FILLER_7_279
*3373 FILLER_7_281
*3374 FILLER_7_293
*3375 FILLER_7_3
*3376 FILLER_7_305
*3377 FILLER_7_317
*3378 FILLER_7_329
*3379 FILLER_7_333
*3380 FILLER_7_335
*3381 FILLER_7_337
*3382 FILLER_7_349
*3383 FILLER_7_361
*3384 FILLER_7_373
*3385 FILLER_7_385
*3386 FILLER_7_389
*3387 FILLER_7_39
*3388 FILLER_7_391
*3389 FILLER_7_393
*3390 FILLER_7_405
*3391 FILLER_7_51
*3392 FILLER_7_55
*3393 FILLER_7_57
*3394 FILLER_7_69
*3395 FILLER_7_81
*3396 FILLER_7_93
*3397 FILLER_8_109
*3398 FILLER_8_121
*3399 FILLER_8_133
*3400 FILLER_8_137
*3401 FILLER_8_139
*3402 FILLER_8_141
*3403 FILLER_8_15
*3404 FILLER_8_153
*3405 FILLER_8_165
*3406 FILLER_8_177
*3407 FILLER_8_189
*3408 FILLER_8_193
*3409 FILLER_8_195
*3410 FILLER_8_197
*3411 FILLER_8_209
*3412 FILLER_8_221
*3413 FILLER_8_233
*3414 FILLER_8_245
*3415 FILLER_8_249
*3416 FILLER_8_251
*3417 FILLER_8_253
*3418 FILLER_8_265
*3419 FILLER_8_27
*3420 FILLER_8_277
*3421 FILLER_8_289
*3422 FILLER_8_29
*3423 FILLER_8_3
*3424 FILLER_8_301
*3425 FILLER_8_305
*3426 FILLER_8_307
*3427 FILLER_8_309
*3428 FILLER_8_321
*3429 FILLER_8_333
*3430 FILLER_8_345
*3431 FILLER_8_357
*3432 FILLER_8_361
*3433 FILLER_8_363
*3434 FILLER_8_365
*3435 FILLER_8_377
*3436 FILLER_8_389
*3437 FILLER_8_401
*3438 FILLER_8_405
*3439 FILLER_8_41
*3440 FILLER_8_53
*3441 FILLER_8_65
*3442 FILLER_8_77
*3443 FILLER_8_81
*3444 FILLER_8_83
*3445 FILLER_8_85
*3446 FILLER_8_97
*3447 FILLER_9_105
*3448 FILLER_9_109
*3449 FILLER_9_111
*3450 FILLER_9_113
*3451 FILLER_9_125
*3452 FILLER_9_137
*3453 FILLER_9_149
*3454 FILLER_9_15
*3455 FILLER_9_161
*3456 FILLER_9_165
*3457 FILLER_9_167
*3458 FILLER_9_169
*3459 FILLER_9_181
*3460 FILLER_9_193
*3461 FILLER_9_205
*3462 FILLER_9_217
*3463 FILLER_9_221
*3464 FILLER_9_223
*3465 FILLER_9_225
*3466 FILLER_9_237
*3467 FILLER_9_249
*3468 FILLER_9_261
*3469 FILLER_9_27
*3470 FILLER_9_273
*3471 FILLER_9_277
*3472 FILLER_9_279
*3473 FILLER_9_281
*3474 FILLER_9_293
*3475 FILLER_9_3
*3476 FILLER_9_305
*3477 FILLER_9_317
*3478 FILLER_9_329
*3479 FILLER_9_333
*3480 FILLER_9_335
*3481 FILLER_9_337
*3482 FILLER_9_349
*3483 FILLER_9_361
*3484 FILLER_9_373
*3485 FILLER_9_385
*3486 FILLER_9_389
*3487 FILLER_9_39
*3488 FILLER_9_391
*3489 FILLER_9_393
*3490 FILLER_9_405
*3491 FILLER_9_51
*3492 FILLER_9_55
*3493 FILLER_9_57
*3494 FILLER_9_69
*3495 FILLER_9_81
*3496 FILLER_9_93
*3497 PHY_EDGE_ROW_0_Left_65
*3498 PHY_EDGE_ROW_0_Right_0
*3499 PHY_EDGE_ROW_10_Left_75
*3500 PHY_EDGE_ROW_10_Right_10
*3501 PHY_EDGE_ROW_11_Left_76
*3502 PHY_EDGE_ROW_11_Right_11
*3503 PHY_EDGE_ROW_12_Left_77
*3504 PHY_EDGE_ROW_12_Right_12
*3505 PHY_EDGE_ROW_13_Left_78
*3506 PHY_EDGE_ROW_13_Right_13
*3507 PHY_EDGE_ROW_14_Left_79
*3508 PHY_EDGE_ROW_14_Right_14
*3509 PHY_EDGE_ROW_15_Left_80
*3510 PHY_EDGE_ROW_15_Right_15
*3511 PHY_EDGE_ROW_16_Left_81
*3512 PHY_EDGE_ROW_16_Right_16
*3513 PHY_EDGE_ROW_17_Left_82
*3514 PHY_EDGE_ROW_17_Right_17
*3515 PHY_EDGE_ROW_18_Left_83
*3516 PHY_EDGE_ROW_18_Right_18
*3517 PHY_EDGE_ROW_19_Left_84
*3518 PHY_EDGE_ROW_19_Right_19
*3519 PHY_EDGE_ROW_1_Left_66
*3520 PHY_EDGE_ROW_1_Right_1
*3521 PHY_EDGE_ROW_20_Left_85
*3522 PHY_EDGE_ROW_20_Right_20
*3523 PHY_EDGE_ROW_21_Left_86
*3524 PHY_EDGE_ROW_21_Right_21
*3525 PHY_EDGE_ROW_22_Left_87
*3526 PHY_EDGE_ROW_22_Right_22
*3527 PHY_EDGE_ROW_23_Left_88
*3528 PHY_EDGE_ROW_23_Right_23
*3529 PHY_EDGE_ROW_24_Left_89
*3530 PHY_EDGE_ROW_24_Right_24
*3531 PHY_EDGE_ROW_25_Left_90
*3532 PHY_EDGE_ROW_25_Right_25
*3533 PHY_EDGE_ROW_26_Left_91
*3534 PHY_EDGE_ROW_26_Right_26
*3535 PHY_EDGE_ROW_27_Left_92
*3536 PHY_EDGE_ROW_27_Right_27
*3537 PHY_EDGE_ROW_28_Left_93
*3538 PHY_EDGE_ROW_28_Right_28
*3539 PHY_EDGE_ROW_29_Left_94
*3540 PHY_EDGE_ROW_29_Right_29
*3541 PHY_EDGE_ROW_2_Left_67
*3542 PHY_EDGE_ROW_2_Right_2
*3543 PHY_EDGE_ROW_30_Left_95
*3544 PHY_EDGE_ROW_30_Right_30
*3545 PHY_EDGE_ROW_31_Left_96
*3546 PHY_EDGE_ROW_31_Right_31
*3547 PHY_EDGE_ROW_32_Left_97
*3548 PHY_EDGE_ROW_32_Right_32
*3549 PHY_EDGE_ROW_33_Left_98
*3550 PHY_EDGE_ROW_33_Right_33
*3551 PHY_EDGE_ROW_34_Left_99
*3552 PHY_EDGE_ROW_34_Right_34
*3553 PHY_EDGE_ROW_35_Left_100
*3554 PHY_EDGE_ROW_35_Right_35
*3555 PHY_EDGE_ROW_36_Left_101
*3556 PHY_EDGE_ROW_36_Right_36
*3557 PHY_EDGE_ROW_37_Left_102
*3558 PHY_EDGE_ROW_37_Right_37
*3559 PHY_EDGE_ROW_38_Left_103
*3560 PHY_EDGE_ROW_38_Right_38
*3561 PHY_EDGE_ROW_39_Left_104
*3562 PHY_EDGE_ROW_39_Right_39
*3563 PHY_EDGE_ROW_3_Left_68
*3564 PHY_EDGE_ROW_3_Right_3
*3565 PHY_EDGE_ROW_40_Left_105
*3566 PHY_EDGE_ROW_40_Right_40
*3567 PHY_EDGE_ROW_41_Left_106
*3568 PHY_EDGE_ROW_41_Right_41
*3569 PHY_EDGE_ROW_42_Left_107
*3570 PHY_EDGE_ROW_42_Right_42
*3571 PHY_EDGE_ROW_43_Left_108
*3572 PHY_EDGE_ROW_43_Right_43
*3573 PHY_EDGE_ROW_44_Left_109
*3574 PHY_EDGE_ROW_44_Right_44
*3575 PHY_EDGE_ROW_45_Left_110
*3576 PHY_EDGE_ROW_45_Right_45
*3577 PHY_EDGE_ROW_46_Left_111
*3578 PHY_EDGE_ROW_46_Right_46
*3579 PHY_EDGE_ROW_47_Left_112
*3580 PHY_EDGE_ROW_47_Right_47
*3581 PHY_EDGE_ROW_48_Left_113
*3582 PHY_EDGE_ROW_48_Right_48
*3583 PHY_EDGE_ROW_49_Left_114
*3584 PHY_EDGE_ROW_49_Right_49
*3585 PHY_EDGE_ROW_4_Left_69
*3586 PHY_EDGE_ROW_4_Right_4
*3587 PHY_EDGE_ROW_50_Left_115
*3588 PHY_EDGE_ROW_50_Right_50
*3589 PHY_EDGE_ROW_51_Left_116
*3590 PHY_EDGE_ROW_51_Right_51
*3591 PHY_EDGE_ROW_52_Left_117
*3592 PHY_EDGE_ROW_52_Right_52
*3593 PHY_EDGE_ROW_53_Left_118
*3594 PHY_EDGE_ROW_53_Right_53
*3595 PHY_EDGE_ROW_54_Left_119
*3596 PHY_EDGE_ROW_54_Right_54
*3597 PHY_EDGE_ROW_55_Left_120
*3598 PHY_EDGE_ROW_55_Right_55
*3599 PHY_EDGE_ROW_56_Left_121
*3600 PHY_EDGE_ROW_56_Right_56
*3601 PHY_EDGE_ROW_57_Left_122
*3602 PHY_EDGE_ROW_57_Right_57
*3603 PHY_EDGE_ROW_58_Left_123
*3604 PHY_EDGE_ROW_58_Right_58
*3605 PHY_EDGE_ROW_59_Left_124
*3606 PHY_EDGE_ROW_59_Right_59
*3607 PHY_EDGE_ROW_5_Left_70
*3608 PHY_EDGE_ROW_5_Right_5
*3609 PHY_EDGE_ROW_60_Left_125
*3610 PHY_EDGE_ROW_60_Right_60
*3611 PHY_EDGE_ROW_61_Left_126
*3612 PHY_EDGE_ROW_61_Right_61
*3613 PHY_EDGE_ROW_62_Left_127
*3614 PHY_EDGE_ROW_62_Right_62
*3615 PHY_EDGE_ROW_63_Left_128
*3616 PHY_EDGE_ROW_63_Right_63
*3617 PHY_EDGE_ROW_64_Left_129
*3618 PHY_EDGE_ROW_64_Right_64
*3619 PHY_EDGE_ROW_6_Left_71
*3620 PHY_EDGE_ROW_6_Right_6
*3621 PHY_EDGE_ROW_7_Left_72
*3622 PHY_EDGE_ROW_7_Right_7
*3623 PHY_EDGE_ROW_8_Left_73
*3624 PHY_EDGE_ROW_8_Right_8
*3625 PHY_EDGE_ROW_9_Left_74
*3626 PHY_EDGE_ROW_9_Right_9
*3627 TAP_TAPCELL_ROW_0_130
*3628 TAP_TAPCELL_ROW_0_131
*3629 TAP_TAPCELL_ROW_0_132
*3630 TAP_TAPCELL_ROW_0_133
*3631 TAP_TAPCELL_ROW_0_134
*3632 TAP_TAPCELL_ROW_0_135
*3633 TAP_TAPCELL_ROW_0_136
*3634 TAP_TAPCELL_ROW_0_137
*3635 TAP_TAPCELL_ROW_0_138
*3636 TAP_TAPCELL_ROW_0_139
*3637 TAP_TAPCELL_ROW_0_140
*3638 TAP_TAPCELL_ROW_0_141
*3639 TAP_TAPCELL_ROW_0_142
*3640 TAP_TAPCELL_ROW_0_143
*3641 TAP_TAPCELL_ROW_10_207
*3642 TAP_TAPCELL_ROW_10_208
*3643 TAP_TAPCELL_ROW_10_209
*3644 TAP_TAPCELL_ROW_10_210
*3645 TAP_TAPCELL_ROW_10_211
*3646 TAP_TAPCELL_ROW_10_212
*3647 TAP_TAPCELL_ROW_10_213
*3648 TAP_TAPCELL_ROW_11_214
*3649 TAP_TAPCELL_ROW_11_215
*3650 TAP_TAPCELL_ROW_11_216
*3651 TAP_TAPCELL_ROW_11_217
*3652 TAP_TAPCELL_ROW_11_218
*3653 TAP_TAPCELL_ROW_11_219
*3654 TAP_TAPCELL_ROW_11_220
*3655 TAP_TAPCELL_ROW_12_221
*3656 TAP_TAPCELL_ROW_12_222
*3657 TAP_TAPCELL_ROW_12_223
*3658 TAP_TAPCELL_ROW_12_224
*3659 TAP_TAPCELL_ROW_12_225
*3660 TAP_TAPCELL_ROW_12_226
*3661 TAP_TAPCELL_ROW_12_227
*3662 TAP_TAPCELL_ROW_13_228
*3663 TAP_TAPCELL_ROW_13_229
*3664 TAP_TAPCELL_ROW_13_230
*3665 TAP_TAPCELL_ROW_13_231
*3666 TAP_TAPCELL_ROW_13_232
*3667 TAP_TAPCELL_ROW_13_233
*3668 TAP_TAPCELL_ROW_13_234
*3669 TAP_TAPCELL_ROW_14_235
*3670 TAP_TAPCELL_ROW_14_236
*3671 TAP_TAPCELL_ROW_14_237
*3672 TAP_TAPCELL_ROW_14_238
*3673 TAP_TAPCELL_ROW_14_239
*3674 TAP_TAPCELL_ROW_14_240
*3675 TAP_TAPCELL_ROW_14_241
*3676 TAP_TAPCELL_ROW_15_242
*3677 TAP_TAPCELL_ROW_15_243
*3678 TAP_TAPCELL_ROW_15_244
*3679 TAP_TAPCELL_ROW_15_245
*3680 TAP_TAPCELL_ROW_15_246
*3681 TAP_TAPCELL_ROW_15_247
*3682 TAP_TAPCELL_ROW_15_248
*3683 TAP_TAPCELL_ROW_16_249
*3684 TAP_TAPCELL_ROW_16_250
*3685 TAP_TAPCELL_ROW_16_251
*3686 TAP_TAPCELL_ROW_16_252
*3687 TAP_TAPCELL_ROW_16_253
*3688 TAP_TAPCELL_ROW_16_254
*3689 TAP_TAPCELL_ROW_16_255
*3690 TAP_TAPCELL_ROW_17_256
*3691 TAP_TAPCELL_ROW_17_257
*3692 TAP_TAPCELL_ROW_17_258
*3693 TAP_TAPCELL_ROW_17_259
*3694 TAP_TAPCELL_ROW_17_260
*3695 TAP_TAPCELL_ROW_17_261
*3696 TAP_TAPCELL_ROW_17_262
*3697 TAP_TAPCELL_ROW_18_263
*3698 TAP_TAPCELL_ROW_18_264
*3699 TAP_TAPCELL_ROW_18_265
*3700 TAP_TAPCELL_ROW_18_266
*3701 TAP_TAPCELL_ROW_18_267
*3702 TAP_TAPCELL_ROW_18_268
*3703 TAP_TAPCELL_ROW_18_269
*3704 TAP_TAPCELL_ROW_19_270
*3705 TAP_TAPCELL_ROW_19_271
*3706 TAP_TAPCELL_ROW_19_272
*3707 TAP_TAPCELL_ROW_19_273
*3708 TAP_TAPCELL_ROW_19_274
*3709 TAP_TAPCELL_ROW_19_275
*3710 TAP_TAPCELL_ROW_19_276
*3711 TAP_TAPCELL_ROW_1_144
*3712 TAP_TAPCELL_ROW_1_145
*3713 TAP_TAPCELL_ROW_1_146
*3714 TAP_TAPCELL_ROW_1_147
*3715 TAP_TAPCELL_ROW_1_148
*3716 TAP_TAPCELL_ROW_1_149
*3717 TAP_TAPCELL_ROW_1_150
*3718 TAP_TAPCELL_ROW_20_277
*3719 TAP_TAPCELL_ROW_20_278
*3720 TAP_TAPCELL_ROW_20_279
*3721 TAP_TAPCELL_ROW_20_280
*3722 TAP_TAPCELL_ROW_20_281
*3723 TAP_TAPCELL_ROW_20_282
*3724 TAP_TAPCELL_ROW_20_283
*3725 TAP_TAPCELL_ROW_21_284
*3726 TAP_TAPCELL_ROW_21_285
*3727 TAP_TAPCELL_ROW_21_286
*3728 TAP_TAPCELL_ROW_21_287
*3729 TAP_TAPCELL_ROW_21_288
*3730 TAP_TAPCELL_ROW_21_289
*3731 TAP_TAPCELL_ROW_21_290
*3732 TAP_TAPCELL_ROW_22_291
*3733 TAP_TAPCELL_ROW_22_292
*3734 TAP_TAPCELL_ROW_22_293
*3735 TAP_TAPCELL_ROW_22_294
*3736 TAP_TAPCELL_ROW_22_295
*3737 TAP_TAPCELL_ROW_22_296
*3738 TAP_TAPCELL_ROW_22_297
*3739 TAP_TAPCELL_ROW_23_298
*3740 TAP_TAPCELL_ROW_23_299
*3741 TAP_TAPCELL_ROW_23_300
*3742 TAP_TAPCELL_ROW_23_301
*3743 TAP_TAPCELL_ROW_23_302
*3744 TAP_TAPCELL_ROW_23_303
*3745 TAP_TAPCELL_ROW_23_304
*3746 TAP_TAPCELL_ROW_24_305
*3747 TAP_TAPCELL_ROW_24_306
*3748 TAP_TAPCELL_ROW_24_307
*3749 TAP_TAPCELL_ROW_24_308
*3750 TAP_TAPCELL_ROW_24_309
*3751 TAP_TAPCELL_ROW_24_310
*3752 TAP_TAPCELL_ROW_24_311
*3753 TAP_TAPCELL_ROW_25_312
*3754 TAP_TAPCELL_ROW_25_313
*3755 TAP_TAPCELL_ROW_25_314
*3756 TAP_TAPCELL_ROW_25_315
*3757 TAP_TAPCELL_ROW_25_316
*3758 TAP_TAPCELL_ROW_25_317
*3759 TAP_TAPCELL_ROW_25_318
*3760 TAP_TAPCELL_ROW_26_319
*3761 TAP_TAPCELL_ROW_26_320
*3762 TAP_TAPCELL_ROW_26_321
*3763 TAP_TAPCELL_ROW_26_322
*3764 TAP_TAPCELL_ROW_26_323
*3765 TAP_TAPCELL_ROW_26_324
*3766 TAP_TAPCELL_ROW_26_325
*3767 TAP_TAPCELL_ROW_27_326
*3768 TAP_TAPCELL_ROW_27_327
*3769 TAP_TAPCELL_ROW_27_328
*3770 TAP_TAPCELL_ROW_27_329
*3771 TAP_TAPCELL_ROW_27_330
*3772 TAP_TAPCELL_ROW_27_331
*3773 TAP_TAPCELL_ROW_27_332
*3774 TAP_TAPCELL_ROW_28_333
*3775 TAP_TAPCELL_ROW_28_334
*3776 TAP_TAPCELL_ROW_28_335
*3777 TAP_TAPCELL_ROW_28_336
*3778 TAP_TAPCELL_ROW_28_337
*3779 TAP_TAPCELL_ROW_28_338
*3780 TAP_TAPCELL_ROW_28_339
*3781 TAP_TAPCELL_ROW_29_340
*3782 TAP_TAPCELL_ROW_29_341
*3783 TAP_TAPCELL_ROW_29_342
*3784 TAP_TAPCELL_ROW_29_343
*3785 TAP_TAPCELL_ROW_29_344
*3786 TAP_TAPCELL_ROW_29_345
*3787 TAP_TAPCELL_ROW_29_346
*3788 TAP_TAPCELL_ROW_2_151
*3789 TAP_TAPCELL_ROW_2_152
*3790 TAP_TAPCELL_ROW_2_153
*3791 TAP_TAPCELL_ROW_2_154
*3792 TAP_TAPCELL_ROW_2_155
*3793 TAP_TAPCELL_ROW_2_156
*3794 TAP_TAPCELL_ROW_2_157
*3795 TAP_TAPCELL_ROW_30_347
*3796 TAP_TAPCELL_ROW_30_348
*3797 TAP_TAPCELL_ROW_30_349
*3798 TAP_TAPCELL_ROW_30_350
*3799 TAP_TAPCELL_ROW_30_351
*3800 TAP_TAPCELL_ROW_30_352
*3801 TAP_TAPCELL_ROW_30_353
*3802 TAP_TAPCELL_ROW_31_354
*3803 TAP_TAPCELL_ROW_31_355
*3804 TAP_TAPCELL_ROW_31_356
*3805 TAP_TAPCELL_ROW_31_357
*3806 TAP_TAPCELL_ROW_31_358
*3807 TAP_TAPCELL_ROW_31_359
*3808 TAP_TAPCELL_ROW_31_360
*3809 TAP_TAPCELL_ROW_32_361
*3810 TAP_TAPCELL_ROW_32_362
*3811 TAP_TAPCELL_ROW_32_363
*3812 TAP_TAPCELL_ROW_32_364
*3813 TAP_TAPCELL_ROW_32_365
*3814 TAP_TAPCELL_ROW_32_366
*3815 TAP_TAPCELL_ROW_32_367
*3816 TAP_TAPCELL_ROW_33_368
*3817 TAP_TAPCELL_ROW_33_369
*3818 TAP_TAPCELL_ROW_33_370
*3819 TAP_TAPCELL_ROW_33_371
*3820 TAP_TAPCELL_ROW_33_372
*3821 TAP_TAPCELL_ROW_33_373
*3822 TAP_TAPCELL_ROW_33_374
*3823 TAP_TAPCELL_ROW_34_375
*3824 TAP_TAPCELL_ROW_34_376
*3825 TAP_TAPCELL_ROW_34_377
*3826 TAP_TAPCELL_ROW_34_378
*3827 TAP_TAPCELL_ROW_34_379
*3828 TAP_TAPCELL_ROW_34_380
*3829 TAP_TAPCELL_ROW_34_381
*3830 TAP_TAPCELL_ROW_35_382
*3831 TAP_TAPCELL_ROW_35_383
*3832 TAP_TAPCELL_ROW_35_384
*3833 TAP_TAPCELL_ROW_35_385
*3834 TAP_TAPCELL_ROW_35_386
*3835 TAP_TAPCELL_ROW_35_387
*3836 TAP_TAPCELL_ROW_35_388
*3837 TAP_TAPCELL_ROW_36_389
*3838 TAP_TAPCELL_ROW_36_390
*3839 TAP_TAPCELL_ROW_36_391
*3840 TAP_TAPCELL_ROW_36_392
*3841 TAP_TAPCELL_ROW_36_393
*3842 TAP_TAPCELL_ROW_36_394
*3843 TAP_TAPCELL_ROW_36_395
*3844 TAP_TAPCELL_ROW_37_396
*3845 TAP_TAPCELL_ROW_37_397
*3846 TAP_TAPCELL_ROW_37_398
*3847 TAP_TAPCELL_ROW_37_399
*3848 TAP_TAPCELL_ROW_37_400
*3849 TAP_TAPCELL_ROW_37_401
*3850 TAP_TAPCELL_ROW_37_402
*3851 TAP_TAPCELL_ROW_38_403
*3852 TAP_TAPCELL_ROW_38_404
*3853 TAP_TAPCELL_ROW_38_405
*3854 TAP_TAPCELL_ROW_38_406
*3855 TAP_TAPCELL_ROW_38_407
*3856 TAP_TAPCELL_ROW_38_408
*3857 TAP_TAPCELL_ROW_38_409
*3858 TAP_TAPCELL_ROW_39_410
*3859 TAP_TAPCELL_ROW_39_411
*3860 TAP_TAPCELL_ROW_39_412
*3861 TAP_TAPCELL_ROW_39_413
*3862 TAP_TAPCELL_ROW_39_414
*3863 TAP_TAPCELL_ROW_39_415
*3864 TAP_TAPCELL_ROW_39_416
*3865 TAP_TAPCELL_ROW_3_158
*3866 TAP_TAPCELL_ROW_3_159
*3867 TAP_TAPCELL_ROW_3_160
*3868 TAP_TAPCELL_ROW_3_161
*3869 TAP_TAPCELL_ROW_3_162
*3870 TAP_TAPCELL_ROW_3_163
*3871 TAP_TAPCELL_ROW_3_164
*3872 TAP_TAPCELL_ROW_40_417
*3873 TAP_TAPCELL_ROW_40_418
*3874 TAP_TAPCELL_ROW_40_419
*3875 TAP_TAPCELL_ROW_40_420
*3876 TAP_TAPCELL_ROW_40_421
*3877 TAP_TAPCELL_ROW_40_422
*3878 TAP_TAPCELL_ROW_40_423
*3879 TAP_TAPCELL_ROW_41_424
*3880 TAP_TAPCELL_ROW_41_425
*3881 TAP_TAPCELL_ROW_41_426
*3882 TAP_TAPCELL_ROW_41_427
*3883 TAP_TAPCELL_ROW_41_428
*3884 TAP_TAPCELL_ROW_41_429
*3885 TAP_TAPCELL_ROW_41_430
*3886 TAP_TAPCELL_ROW_42_431
*3887 TAP_TAPCELL_ROW_42_432
*3888 TAP_TAPCELL_ROW_42_433
*3889 TAP_TAPCELL_ROW_42_434
*3890 TAP_TAPCELL_ROW_42_435
*3891 TAP_TAPCELL_ROW_42_436
*3892 TAP_TAPCELL_ROW_42_437
*3893 TAP_TAPCELL_ROW_43_438
*3894 TAP_TAPCELL_ROW_43_439
*3895 TAP_TAPCELL_ROW_43_440
*3896 TAP_TAPCELL_ROW_43_441
*3897 TAP_TAPCELL_ROW_43_442
*3898 TAP_TAPCELL_ROW_43_443
*3899 TAP_TAPCELL_ROW_43_444
*3900 TAP_TAPCELL_ROW_44_445
*3901 TAP_TAPCELL_ROW_44_446
*3902 TAP_TAPCELL_ROW_44_447
*3903 TAP_TAPCELL_ROW_44_448
*3904 TAP_TAPCELL_ROW_44_449
*3905 TAP_TAPCELL_ROW_44_450
*3906 TAP_TAPCELL_ROW_44_451
*3907 TAP_TAPCELL_ROW_45_452
*3908 TAP_TAPCELL_ROW_45_453
*3909 TAP_TAPCELL_ROW_45_454
*3910 TAP_TAPCELL_ROW_45_455
*3911 TAP_TAPCELL_ROW_45_456
*3912 TAP_TAPCELL_ROW_45_457
*3913 TAP_TAPCELL_ROW_45_458
*3914 TAP_TAPCELL_ROW_46_459
*3915 TAP_TAPCELL_ROW_46_460
*3916 TAP_TAPCELL_ROW_46_461
*3917 TAP_TAPCELL_ROW_46_462
*3918 TAP_TAPCELL_ROW_46_463
*3919 TAP_TAPCELL_ROW_46_464
*3920 TAP_TAPCELL_ROW_46_465
*3921 TAP_TAPCELL_ROW_47_466
*3922 TAP_TAPCELL_ROW_47_467
*3923 TAP_TAPCELL_ROW_47_468
*3924 TAP_TAPCELL_ROW_47_469
*3925 TAP_TAPCELL_ROW_47_470
*3926 TAP_TAPCELL_ROW_47_471
*3927 TAP_TAPCELL_ROW_47_472
*3928 TAP_TAPCELL_ROW_48_473
*3929 TAP_TAPCELL_ROW_48_474
*3930 TAP_TAPCELL_ROW_48_475
*3931 TAP_TAPCELL_ROW_48_476
*3932 TAP_TAPCELL_ROW_48_477
*3933 TAP_TAPCELL_ROW_48_478
*3934 TAP_TAPCELL_ROW_48_479
*3935 TAP_TAPCELL_ROW_49_480
*3936 TAP_TAPCELL_ROW_49_481
*3937 TAP_TAPCELL_ROW_49_482
*3938 TAP_TAPCELL_ROW_49_483
*3939 TAP_TAPCELL_ROW_49_484
*3940 TAP_TAPCELL_ROW_49_485
*3941 TAP_TAPCELL_ROW_49_486
*3942 TAP_TAPCELL_ROW_4_165
*3943 TAP_TAPCELL_ROW_4_166
*3944 TAP_TAPCELL_ROW_4_167
*3945 TAP_TAPCELL_ROW_4_168
*3946 TAP_TAPCELL_ROW_4_169
*3947 TAP_TAPCELL_ROW_4_170
*3948 TAP_TAPCELL_ROW_4_171
*3949 TAP_TAPCELL_ROW_50_487
*3950 TAP_TAPCELL_ROW_50_488
*3951 TAP_TAPCELL_ROW_50_489
*3952 TAP_TAPCELL_ROW_50_490
*3953 TAP_TAPCELL_ROW_50_491
*3954 TAP_TAPCELL_ROW_50_492
*3955 TAP_TAPCELL_ROW_50_493
*3956 TAP_TAPCELL_ROW_51_494
*3957 TAP_TAPCELL_ROW_51_495
*3958 TAP_TAPCELL_ROW_51_496
*3959 TAP_TAPCELL_ROW_51_497
*3960 TAP_TAPCELL_ROW_51_498
*3961 TAP_TAPCELL_ROW_51_499
*3962 TAP_TAPCELL_ROW_51_500
*3963 TAP_TAPCELL_ROW_52_501
*3964 TAP_TAPCELL_ROW_52_502
*3965 TAP_TAPCELL_ROW_52_503
*3966 TAP_TAPCELL_ROW_52_504
*3967 TAP_TAPCELL_ROW_52_505
*3968 TAP_TAPCELL_ROW_52_506
*3969 TAP_TAPCELL_ROW_52_507
*3970 TAP_TAPCELL_ROW_53_508
*3971 TAP_TAPCELL_ROW_53_509
*3972 TAP_TAPCELL_ROW_53_510
*3973 TAP_TAPCELL_ROW_53_511
*3974 TAP_TAPCELL_ROW_53_512
*3975 TAP_TAPCELL_ROW_53_513
*3976 TAP_TAPCELL_ROW_53_514
*3977 TAP_TAPCELL_ROW_54_515
*3978 TAP_TAPCELL_ROW_54_516
*3979 TAP_TAPCELL_ROW_54_517
*3980 TAP_TAPCELL_ROW_54_518
*3981 TAP_TAPCELL_ROW_54_519
*3982 TAP_TAPCELL_ROW_54_520
*3983 TAP_TAPCELL_ROW_54_521
*3984 TAP_TAPCELL_ROW_55_522
*3985 TAP_TAPCELL_ROW_55_523
*3986 TAP_TAPCELL_ROW_55_524
*3987 TAP_TAPCELL_ROW_55_525
*3988 TAP_TAPCELL_ROW_55_526
*3989 TAP_TAPCELL_ROW_55_527
*3990 TAP_TAPCELL_ROW_55_528
*3991 TAP_TAPCELL_ROW_56_529
*3992 TAP_TAPCELL_ROW_56_530
*3993 TAP_TAPCELL_ROW_56_531
*3994 TAP_TAPCELL_ROW_56_532
*3995 TAP_TAPCELL_ROW_56_533
*3996 TAP_TAPCELL_ROW_56_534
*3997 TAP_TAPCELL_ROW_56_535
*3998 TAP_TAPCELL_ROW_57_536
*3999 TAP_TAPCELL_ROW_57_537
*4000 TAP_TAPCELL_ROW_57_538
*4001 TAP_TAPCELL_ROW_57_539
*4002 TAP_TAPCELL_ROW_57_540
*4003 TAP_TAPCELL_ROW_57_541
*4004 TAP_TAPCELL_ROW_57_542
*4005 TAP_TAPCELL_ROW_58_543
*4006 TAP_TAPCELL_ROW_58_544
*4007 TAP_TAPCELL_ROW_58_545
*4008 TAP_TAPCELL_ROW_58_546
*4009 TAP_TAPCELL_ROW_58_547
*4010 TAP_TAPCELL_ROW_58_548
*4011 TAP_TAPCELL_ROW_58_549
*4012 TAP_TAPCELL_ROW_59_550
*4013 TAP_TAPCELL_ROW_59_551
*4014 TAP_TAPCELL_ROW_59_552
*4015 TAP_TAPCELL_ROW_59_553
*4016 TAP_TAPCELL_ROW_59_554
*4017 TAP_TAPCELL_ROW_59_555
*4018 TAP_TAPCELL_ROW_59_556
*4019 TAP_TAPCELL_ROW_5_172
*4020 TAP_TAPCELL_ROW_5_173
*4021 TAP_TAPCELL_ROW_5_174
*4022 TAP_TAPCELL_ROW_5_175
*4023 TAP_TAPCELL_ROW_5_176
*4024 TAP_TAPCELL_ROW_5_177
*4025 TAP_TAPCELL_ROW_5_178
*4026 TAP_TAPCELL_ROW_60_557
*4027 TAP_TAPCELL_ROW_60_558
*4028 TAP_TAPCELL_ROW_60_559
*4029 TAP_TAPCELL_ROW_60_560
*4030 TAP_TAPCELL_ROW_60_561
*4031 TAP_TAPCELL_ROW_60_562
*4032 TAP_TAPCELL_ROW_60_563
*4033 TAP_TAPCELL_ROW_61_564
*4034 TAP_TAPCELL_ROW_61_565
*4035 TAP_TAPCELL_ROW_61_566
*4036 TAP_TAPCELL_ROW_61_567
*4037 TAP_TAPCELL_ROW_61_568
*4038 TAP_TAPCELL_ROW_61_569
*4039 TAP_TAPCELL_ROW_61_570
*4040 TAP_TAPCELL_ROW_62_571
*4041 TAP_TAPCELL_ROW_62_572
*4042 TAP_TAPCELL_ROW_62_573
*4043 TAP_TAPCELL_ROW_62_574
*4044 TAP_TAPCELL_ROW_62_575
*4045 TAP_TAPCELL_ROW_62_576
*4046 TAP_TAPCELL_ROW_62_577
*4047 TAP_TAPCELL_ROW_63_578
*4048 TAP_TAPCELL_ROW_63_579
*4049 TAP_TAPCELL_ROW_63_580
*4050 TAP_TAPCELL_ROW_63_581
*4051 TAP_TAPCELL_ROW_63_582
*4052 TAP_TAPCELL_ROW_63_583
*4053 TAP_TAPCELL_ROW_63_584
*4054 TAP_TAPCELL_ROW_64_585
*4055 TAP_TAPCELL_ROW_64_586
*4056 TAP_TAPCELL_ROW_64_587
*4057 TAP_TAPCELL_ROW_64_588
*4058 TAP_TAPCELL_ROW_64_589
*4059 TAP_TAPCELL_ROW_64_590
*4060 TAP_TAPCELL_ROW_64_591
*4061 TAP_TAPCELL_ROW_64_592
*4062 TAP_TAPCELL_ROW_64_593
*4063 TAP_TAPCELL_ROW_64_594
*4064 TAP_TAPCELL_ROW_64_595
*4065 TAP_TAPCELL_ROW_64_596
*4066 TAP_TAPCELL_ROW_64_597
*4067 TAP_TAPCELL_ROW_64_598
*4068 TAP_TAPCELL_ROW_6_179
*4069 TAP_TAPCELL_ROW_6_180
*4070 TAP_TAPCELL_ROW_6_181
*4071 TAP_TAPCELL_ROW_6_182
*4072 TAP_TAPCELL_ROW_6_183
*4073 TAP_TAPCELL_ROW_6_184
*4074 TAP_TAPCELL_ROW_6_185
*4075 TAP_TAPCELL_ROW_7_186
*4076 TAP_TAPCELL_ROW_7_187
*4077 TAP_TAPCELL_ROW_7_188
*4078 TAP_TAPCELL_ROW_7_189
*4079 TAP_TAPCELL_ROW_7_190
*4080 TAP_TAPCELL_ROW_7_191
*4081 TAP_TAPCELL_ROW_7_192
*4082 TAP_TAPCELL_ROW_8_193
*4083 TAP_TAPCELL_ROW_8_194
*4084 TAP_TAPCELL_ROW_8_195
*4085 TAP_TAPCELL_ROW_8_196
*4086 TAP_TAPCELL_ROW_8_197
*4087 TAP_TAPCELL_ROW_8_198
*4088 TAP_TAPCELL_ROW_8_199
*4089 TAP_TAPCELL_ROW_9_200
*4090 TAP_TAPCELL_ROW_9_201
*4091 TAP_TAPCELL_ROW_9_202
*4092 TAP_TAPCELL_ROW_9_203
*4093 TAP_TAPCELL_ROW_9_204
*4094 TAP_TAPCELL_ROW_9_205
*4095 TAP_TAPCELL_ROW_9_206
*4096 _243_
*4097 _244_
*4098 _245_
*4099 _246_
*4100 _247_
*4101 _248_
*4102 _249_
*4103 _250_
*4104 _251_
*4105 _252_
*4106 _253_
*4107 _254_
*4108 _255_
*4109 _256_
*4110 _257_
*4111 _258_
*4112 _259_
*4113 _260_
*4114 _261_
*4115 _262_
*4116 _263_
*4117 _264_
*4118 _265_
*4119 _266_
*4120 _267_
*4121 _268_
*4122 _269_
*4123 _270_
*4124 _271_
*4125 _272_
*4126 _273_
*4127 _274_
*4128 _275_
*4129 _276_
*4130 _277_
*4131 _278_
*4132 _279_
*4133 _280_
*4134 _281_
*4135 _282_
*4136 _283_
*4137 _284_
*4138 _285_
*4139 _286_
*4140 _287_
*4141 _288_
*4142 _289_
*4143 _290_
*4144 _291_
*4145 _292_
*4146 _293_
*4147 _294_
*4148 _295_
*4149 _296_
*4150 _297_
*4151 _298_
*4152 _299_
*4153 _300_
*4154 _301_
*4155 _302_
*4156 _303_
*4157 _304_
*4158 _305_
*4159 _306_
*4160 _307_
*4161 _308_
*4162 _309_
*4163 _310_
*4164 _311_
*4165 _312_
*4166 _313_
*4167 _314_
*4168 _315_
*4169 _316_
*4170 _317_
*4171 _318_
*4172 _319_
*4173 _320_
*4174 _321_
*4175 _322_
*4176 _323_
*4177 _324_
*4178 _325_
*4179 _326_
*4180 _327_
*4181 _328_
*4182 _329_
*4183 _330_
*4184 _331_
*4185 _332_
*4186 _333_
*4187 _334_
*4188 _335_
*4189 _336_
*4190 _337_
*4191 _338_
*4192 _339_
*4193 _340_
*4194 _341_
*4195 _342_
*4196 _343_
*4197 _344_
*4198 _345_
*4199 _346_
*4200 _347_
*4201 _348_
*4202 _349_
*4203 _350_
*4204 _351_
*4205 _352_
*4206 _353_
*4207 _354_
*4208 _355_
*4209 _356_
*4210 _357_
*4211 _358_
*4212 _359_
*4213 _360_
*4214 _361_
*4215 _362_
*4216 _363_
*4217 _364_
*4218 _365_
*4219 _366_
*4220 _367_
*4221 _368_
*4222 _369_
*4223 _370_
*4224 _371_
*4225 _372_
*4226 _373_
*4227 _374_
*4228 _375_
*4229 _376_
*4230 _377_
*4231 _378_
*4232 _379_
*4233 _380_
*4234 _381_
*4235 _382_
*4236 _383_
*4237 _384_
*4238 _385_
*4239 _386_
*4240 _387_
*4241 _388_
*4242 _389_
*4243 _390_
*4244 _391_
*4245 _392_
*4246 _393_
*4247 _394_
*4248 _395_
*4249 _396_
*4250 _397_
*4251 _398_
*4252 _399_
*4253 _400_
*4254 _401_
*4255 _402_
*4256 _403_
*4257 _404_
*4258 _405_
*4259 _406_
*4260 _407_
*4261 _408_
*4262 _409_
*4263 _410_
*4264 _411_
*4265 _412_
*4266 _413_
*4267 _414_
*4268 _415_
*4269 _416_
*4270 _417_
*4271 _418_
*4272 _419_
*4273 _420_
*4274 _421_
*4275 _422_
*4276 _423_
*4277 _424_
*4278 _425_
*4279 _426_
*4280 _427_
*4281 _428_
*4282 _429_
*4283 _430_
*4284 _431_
*4285 _432_
*4286 _433_
*4287 _434_
*4288 _435_
*4289 _436_
*4290 _437_
*4291 _438_
*4292 _439_
*4293 _440_
*4294 _441_
*4295 _442_
*4296 _443_
*4297 _444_
*4298 _445_
*4299 _446_
*4300 _447_
*4301 _448_
*4302 _449_
*4303 _450_
*4304 _451_
*4305 _452_
*4306 _453_
*4307 _454_
*4308 _455_
*4309 _456_
*4310 _457_
*4311 _458_
*4312 _459_
*4313 _460_
*4314 _461_
*4315 _462_
*4316 _463_
*4317 _464_
*4318 _465_
*4319 _466_
*4320 _467_
*4321 _468_
*4322 _469_
*4323 _470_
*4324 _471_
*4325 _472_
*4326 _473_
*4327 _474_
*4328 _475_
*4329 _476_
*4330 _477_
*4331 _478_
*4332 _479_
*4333 _480_
*4334 _481_
*4335 _482_
*4336 _483_
*4337 _484_
*4338 _485_
*4339 _486_
*4340 _487_
*4341 _488_
*4342 _489_
*4343 _490_
*4344 _491_
*4345 _492_
*4346 _493_
*4347 _494_
*4348 _495_
*4349 _496_
*4350 _497_
*4351 _498_
*4352 _499_
*4353 _500_
*4354 _501_
*4355 _502_
*4356 _503_
*4357 _504_
*4358 _505_
*4359 _506_
*4360 _507_
*4361 _508_
*4362 _509_
*4363 _510_
*4364 _511_
*4365 _512_
*4366 _513_
*4367 _514_
*4368 _515_
*4369 _516_
*4370 _517_
*4371 _518_
*4372 _519_
*4373 _520_
*4374 _521_
*4375 _522_
*4376 _523_
*4377 _524_
*4378 _525_
*4379 _526_
*4380 _527_
*4381 _528_
*4382 _529_
*4383 _530_
*4384 _531_
*4385 _532_
*4386 _533_
*4387 _534_
*4388 _535_
*4389 _536_
*4390 _537_
*4391 _538_
*4392 _539_
*4393 _540_
*4394 _541_
*4395 _542_
*4396 _543_
*4397 _544_
*4398 _545_
*4399 _546_
*4400 _547_
*4401 _548_
*4402 _549_
*4403 _550_
*4404 _551_
*4405 _552_
*4406 _553_
*4407 _554_
*4408 _555_
*4409 _556_
*4410 _557_
*4411 _558_
*4412 _559_
*4413 _560_
*4414 _561_
*4415 _562_
*4416 _563_
*4417 _564_
*4418 _565_
*4419 clkbuf_0_clk
*4420 clkbuf_3_0__f_clk
*4421 clkbuf_3_1__f_clk
*4422 clkbuf_3_2__f_clk
*4423 clkbuf_3_3__f_clk
*4424 clkbuf_3_4__f_clk
*4425 clkbuf_3_5__f_clk
*4426 clkbuf_3_6__f_clk
*4427 clkbuf_3_7__f_clk
*4428 clkload0
*4429 clkload1
*4430 clkload2
*4431 clkload3
*4432 clkload4
*4433 clkload5
*4434 clkload6
*4435 fanout12
*4436 fanout13
*4437 hold1
*4438 hold10
*4439 hold100
*4440 hold101
*4441 hold102
*4442 hold103
*4443 hold104
*4444 hold105
*4445 hold106
*4446 hold107
*4447 hold108
*4448 hold109
*4449 hold11
*4450 hold110
*4451 hold111
*4452 hold112
*4453 hold113
*4454 hold114
*4455 hold115
*4456 hold116
*4457 hold117
*4458 hold118
*4459 hold119
*4460 hold12
*4461 hold120
*4462 hold121
*4463 hold122
*4464 hold123
*4465 hold124
*4466 hold125
*4467 hold126
*4468 hold127
*4469 hold128
*4470 hold129
*4471 hold13
*4472 hold130
*4473 hold131
*4474 hold132
*4475 hold133
*4476 hold134
*4477 hold135
*4478 hold136
*4479 hold137
*4480 hold138
*4481 hold139
*4482 hold14
*4483 hold140
*4484 hold141
*4485 hold142
*4486 hold143
*4487 hold144
*4488 hold145
*4489 hold146
*4490 hold147
*4491 hold148
*4492 hold149
*4493 hold15
*4494 hold150
*4495 hold151
*4496 hold152
*4497 hold153
*4498 hold154
*4499 hold155
*4500 hold156
*4501 hold157
*4502 hold158
*4503 hold159
*4504 hold16
*4505 hold160
*4506 hold161
*4507 hold162
*4508 hold163
*4509 hold164
*4510 hold165
*4511 hold166
*4512 hold167
*4513 hold168
*4514 hold169
*4515 hold17
*4516 hold170
*4517 hold18
*4518 hold19
*4519 hold2
*4520 hold20
*4521 hold21
*4522 hold22
*4523 hold23
*4524 hold24
*4525 hold25
*4526 hold26
*4527 hold27
*4528 hold28
*4529 hold29
*4530 hold3
*4531 hold30
*4532 hold31
*4533 hold32
*4534 hold33
*4535 hold34
*4536 hold35
*4537 hold36
*4538 hold37
*4539 hold38
*4540 hold39
*4541 hold4
*4542 hold40
*4543 hold41
*4544 hold42
*4545 hold43
*4546 hold44
*4547 hold45
*4548 hold46
*4549 hold47
*4550 hold48
*4551 hold49
*4552 hold5
*4553 hold50
*4554 hold51
*4555 hold52
*4556 hold53
*4557 hold54
*4558 hold55
*4559 hold56
*4560 hold57
*4561 hold58
*4562 hold59
*4563 hold6
*4564 hold60
*4565 hold61
*4566 hold62
*4567 hold63
*4568 hold64
*4569 hold65
*4570 hold66
*4571 hold67
*4572 hold68
*4573 hold69
*4574 hold7
*4575 hold70
*4576 hold71
*4577 hold72
*4578 hold73
*4579 hold74
*4580 hold75
*4581 hold76
*4582 hold77
*4583 hold78
*4584 hold79
*4585 hold8
*4586 hold80
*4587 hold81
*4588 hold82
*4589 hold83
*4590 hold84
*4591 hold85
*4592 hold86
*4593 hold87
*4594 hold88
*4595 hold89
*4596 hold9
*4597 hold90
*4598 hold91
*4599 hold92
*4600 hold93
*4601 hold94
*4602 hold95
*4603 hold96
*4604 hold97
*4605 hold98
*4606 hold99
*4607 input1
*4608 input2
*4609 output10
*4610 output11
*4611 output3
*4612 output4
*4613 output5
*4614 output6
*4615 output7
*4616 output8
*4617 output9

*PORTS
clk I
led[0] O
led[1] O
led[2] O
led[3] O
led[4] O
led[5] O
led[6] O
led[7] O
sw_0 I
sw_1 I
uart_rxd I
uart_txd O

*D_NET *3 0.0195045
*CONN
*P clk I
*I *4419:A I *D sky130_fd_sc_hd__clkbuf_16
*I *562:DIODE I *D sky130_fd_sc_hd__diode_2
*CAP
1 clk 0.00199382
2 *4419:A 4.98298e-05
3 *562:DIODE 0
4 *3:19 4.98298e-05
5 *3:17 0.00769804
6 *3:9 0.00969186
7 *3:17 *133:10 2.11157e-05
*RES
1 clk *3:9 44.0313 
2 *3:9 *3:17 39.6469 
3 *3:17 *3:19 15 
4 *3:19 *562:DIODE 23 
5 *3:19 *4419:A 23.6214 
*END

*D_NET *4 0.00142729
*CONN
*P led[0] O
*I *4611:X O *D sky130_fd_sc_hd__buf_2
*CAP
1 led[0] 0.000221214
2 *4611:X 0.000264858
3 *4:8 0.000486072
4 led[0] led[2] 9.47267e-05
5 *4:8 *8:8 0.00012758
6 *4:8 *435:12 0.000189504
7 *4:8 *445:8 4.334e-05
*RES
1 *4611:X *4:8 45.3639 
2 *4:8 led[0] 8.9296 
*END

*D_NET *5 0.00229168
*CONN
*P led[1] O
*I *4612:X O *D sky130_fd_sc_hd__buf_2
*CAP
1 led[1] 0.000286932
2 *4612:X 0.000452557
3 *5:8 0.000739489
4 led[1] uart_txd 0
5 *5:8 *265:130 0.000162179
6 *5:8 *456:25 0.000199125
7 *5:8 *496:10 0.000451402
*RES
1 *4612:X *5:8 49.5896 
2 *5:8 led[1] 8.84373 
*END

*D_NET *6 0.00112525
*CONN
*P led[2] O
*I *4613:X O *D sky130_fd_sc_hd__buf_2
*CAP
1 led[2] 0.000246193
2 *4613:X 0.000163718
3 *6:10 0.000409912
4 led[2] led[4] 7.85172e-05
5 led[2] led[5] 0
6 *6:10 *8:8 0.000127969
7 *6:10 *29:10 0
8 *6:10 *417:8 4.21594e-06
9 *6:10 *489:23 0
10 led[0] led[2] 9.47267e-05
*RES
1 *4613:X *6:10 49.4904 
2 *6:10 led[2] 1.01547 
*END

*D_NET *7 0.00534237
*CONN
*P led[3] O
*I *4614:X O *D sky130_fd_sc_hd__buf_2
*CAP
1 led[3] 0.00076434
2 *4614:X 0.00090914
3 *7:16 0.00167348
4 led[3] led[5] 0.000172968
5 led[3] *4578:A 2.01788e-05
6 led[3] *267:80 0
7 led[3] *339:16 0
8 led[3] *491:24 0.000405607
9 led[3] *498:8 0.000108681
10 *7:16 *4176:A0 8.88657e-05
11 *7:16 *4176:S 0
12 *7:16 *4179:A1 0.000201435
13 *7:16 *4599:A 0.000142523
14 *7:16 *4614:A 0.000312772
15 *7:16 *134:111 8.27589e-05
16 *7:16 *153:34 3.8805e-05
17 *7:16 *153:55 1.65704e-05
18 *7:16 *346:10 0.000404246
*RES
1 *4614:X *7:16 41.4771 
2 *7:16 led[3] 29.9535 
*END

*D_NET *8 0.00178608
*CONN
*P led[4] O
*I *4615:X O *D sky130_fd_sc_hd__buf_2
*CAP
1 led[4] 0.000177813
2 *4615:X 0.000426563
3 *8:8 0.000604376
4 led[4] led[5] 8.44976e-05
5 *8:8 *134:93 0.000136109
6 *8:8 *134:95 2.26497e-05
7 *8:8 *417:8 0
8 *8:8 *435:12 0
9 led[2] led[4] 7.85172e-05
10 *4:8 *8:8 0.00012758
11 *6:10 *8:8 0.000127969
*RES
1 *4615:X *8:8 46.7725 
2 *8:8 led[4] 8.84373 
*END

*D_NET *9 0.00318705
*CONN
*P led[5] O
*I *4616:X O *D sky130_fd_sc_hd__buf_2
*CAP
1 led[5] 0.000509819
2 *4616:X 0.000860972
3 *9:10 0.00137079
4 led[5] *491:24 0
5 *9:10 *4347:CLK 5.40337e-05
6 *9:10 *4347:D 4.9054e-06
7 *9:10 *4616:A 0.000102389
8 *9:10 *301:35 5.37348e-06
9 *9:10 *305:44 5.73835e-06
10 *9:10 *417:8 0
11 *9:10 *489:8 1.55622e-05
12 led[2] led[5] 0
13 led[3] led[5] 0.000172968
14 led[4] led[5] 8.44976e-05
*RES
1 *4616:X *9:10 49.1754 
2 *9:10 led[5] 9.87413 
*END

*D_NET *10 0.00120643
*CONN
*P led[6] O
*I *4617:X O *D sky130_fd_sc_hd__buf_2
*CAP
1 led[6] 0.000516367
2 *4617:X 8.68479e-05
3 *10:8 0.000603215
4 led[6] *511:19 0
*RES
1 *4617:X *10:8 39.0979 
2 *10:8 led[6] 11.165 
*END

*D_NET *11 0.000935434
*CONN
*P led[7] O
*I *4609:X O *D sky130_fd_sc_hd__buf_2
*CAP
1 led[7] 0.000467717
2 *4609:X 0.000467717
*RES
1 *4609:X led[7] 47.0936 
*END

*D_NET *12 0.00493578
*CONN
*P sw_0 I
*I *574:DIODE I *D sky130_fd_sc_hd__diode_2
*I *4607:A I *D sky130_fd_sc_hd__clkbuf_1
*CAP
1 sw_0 0.000969508
2 *574:DIODE 0.00045968
3 *4607:A 0.000107257
4 *12:9 0.00153644
5 *574:DIODE *4513:A 7.38424e-05
6 *574:DIODE *20:10 0.000141879
7 *574:DIODE *134:127 0
8 *574:DIODE *225:48 0.000558176
9 *574:DIODE *312:8 4.48568e-05
10 *574:DIODE *338:10 0
11 *574:DIODE *422:18 0
12 *574:DIODE *422:31 0.000170889
13 *4607:A *233:16 0.000179824
14 *12:9 uart_txd 0.000151312
15 *12:9 *15:10 0.000273194
16 *12:9 *338:10 0
17 *12:9 *339:16 0.000196526
18 *12:9 *368:8 0
19 *12:9 *515:10 7.23898e-05
*RES
1 sw_0 *12:9 16.8859 
2 *12:9 *4607:A 40.5479 
3 *12:9 *574:DIODE 49.6829 
*END

*D_NET *14 0.000927289
*CONN
*P uart_rxd I
*I *575:DIODE I *D sky130_fd_sc_hd__diode_2
*I *4608:A I *D sky130_fd_sc_hd__buf_1
*CAP
1 uart_rxd 0.00036152
2 *575:DIODE 8.81743e-05
3 *4608:A 0
4 *14:13 0.000449694
5 *14:13 *434:8 2.79004e-05
*RES
1 uart_rxd *14:13 27.0795 
2 *14:13 *4608:A 23 
3 *14:13 *575:DIODE 24.5743 
*END

*D_NET *15 0.00312406
*CONN
*P uart_txd O
*I *4610:X O *D sky130_fd_sc_hd__buf_2
*CAP
1 uart_txd 0.00048468
2 *4610:X 0.000501991
3 *15:10 0.000986672
4 uart_txd *146:20 0.000346824
5 *15:10 *4156:C1 0
6 *15:10 *351:8 5.41288e-05
7 *15:10 *368:8 0
8 *15:10 *373:18 0.000159568
9 *15:10 *399:14 3.28609e-05
10 *15:10 *515:10 0.000132831
11 led[1] uart_txd 0
12 *12:9 uart_txd 0.000151312
13 *12:9 *15:10 0.000273194
*RES
1 *4610:X *15:10 47.8911 
2 *15:10 uart_txd 9.78827 
*END

*D_NET *16 0.000152716
*CONN
*I *4522:A I *D sky130_fd_sc_hd__dlygate4sd3_1
*I *4124:X O *D sky130_fd_sc_hd__a221o_1
*CAP
1 *4522:A 3.18614e-05
2 *4124:X 3.18614e-05
3 *4522:A *4536:A 5.67058e-05
4 *4522:A *100:338 3.22879e-05
*RES
1 *4124:X *4522:A 47.1186 
*END

*D_NET *17 0.000239266
*CONN
*I *4395:D I *D sky130_fd_sc_hd__dfxtp_2
*I *4143:X O *D sky130_fd_sc_hd__a31o_1
*CAP
1 *4395:D 1.66233e-05
2 *4143:X 8.37998e-05
3 *17:8 0.000100423
4 *17:8 *151:12 0
5 *17:8 *263:65 2.76611e-06
6 *17:8 *263:78 3.56537e-05
*RES
1 *4143:X *17:8 39.5536 
2 *17:8 *4395:D 38.1916 
*END

*D_NET *18 0.000637531
*CONN
*I *4396:D I *D sky130_fd_sc_hd__dfxtp_2
*I *4145:X O *D sky130_fd_sc_hd__a22o_1
*CAP
1 *4396:D 0.000187314
2 *4145:X 4.53613e-05
3 *18:8 0.000232676
4 *18:8 *140:209 5.80963e-05
5 *18:8 *290:29 0.000114083
*RES
1 *4145:X *18:8 39.5536 
2 *18:8 *4396:D 40.3666 
*END

*D_NET *19 0.000884792
*CONN
*I *4397:D I *D sky130_fd_sc_hd__dfxtp_4
*I *4152:X O *D sky130_fd_sc_hd__a32o_1
*CAP
1 *4397:D 0.000126344
2 *4152:X 0.000158126
3 *19:8 0.00028447
4 *4397:D *4397:CLK 0.000315852
5 *19:8 *4152:A1 0
6 *19:8 *263:78 0
7 *19:8 *290:8 0
*RES
1 *4152:X *19:8 40.61 
2 *19:8 *4397:D 41.48 
*END

*D_NET *20 0.000775333
*CONN
*I *4452:A I *D sky130_fd_sc_hd__dlygate4sd3_1
*I *4139:X O *D sky130_fd_sc_hd__a221o_1
*CAP
1 *4452:A 0
2 *4139:X 0.000308057
3 *20:10 0.000308057
4 *20:10 *528:DIODE 1.73399e-05
5 *20:10 *134:127 0
6 *574:DIODE *20:10 0.000141879
*RES
1 *4139:X *20:10 42.9093 
2 *20:10 *4452:A 38 
*END

*D_NET *21 0.000532047
*CONN
*I *4508:A I *D sky130_fd_sc_hd__dlygate4sd3_1
*I *4132:X O *D sky130_fd_sc_hd__a31o_1
*CAP
1 *4508:A 0.000107247
2 *4132:X 0.000107247
3 *4508:A *394:30 0.000317553
*RES
1 *4132:X *4508:A 49.48 
*END

*D_NET *22 0.000121314
*CONN
*I *4479:A I *D sky130_fd_sc_hd__dlygate4sd3_1
*I *4151:X O *D sky130_fd_sc_hd__a22o_1
*CAP
1 *4479:A 4.99856e-05
2 *4151:X 4.99856e-05
3 *4479:A *4151:B2 1.73399e-05
4 *4479:A *142:69 4.00259e-06
*RES
1 *4151:X *4479:A 47.1186 
*END

*D_NET *23 0.000659586
*CONN
*I *4458:A I *D sky130_fd_sc_hd__dlygate4sd3_1
*I *4147:X O *D sky130_fd_sc_hd__a31o_1
*CAP
1 *4458:A 0.000108403
2 *4147:X 0.000104148
3 *23:8 0.000212551
4 *4458:A *225:10 2.64616e-05
5 *4458:A *429:14 9.90847e-05
6 *23:8 *225:10 8.50366e-05
7 *23:8 *362:47 2.39018e-05
*RES
1 *4147:X *23:8 39.9057 
2 *23:8 *4458:A 40.0507 
*END

*D_NET *24 0.00187335
*CONN
*I *4585:A I *D sky130_fd_sc_hd__dlygate4sd3_1
*I *4154:X O *D sky130_fd_sc_hd__o21ba_1
*CAP
1 *4585:A 0.000119361
2 *4154:X 0.00053578
3 *24:10 0.000655141
4 *24:10 *133:166 9.75779e-05
5 *24:10 *302:8 0
6 *24:10 *435:12 0
7 *24:10 *436:8 8.51432e-05
8 *24:10 *489:23 0.000380342
9 *24:10 *494:8 0
*RES
1 *4154:X *24:10 49.455 
2 *24:10 *4585:A 40.0507 
*END

*D_NET *25 0.000815173
*CONN
*I *4586:A I *D sky130_fd_sc_hd__dlygate4sd3_1
*I *4156:X O *D sky130_fd_sc_hd__o211a_1
*CAP
1 *4586:A 0.000113235
2 *4156:X 0.000113235
3 *4586:A *4156:A2 7.15126e-05
4 *4586:A *134:125 6.9805e-05
5 *4586:A *338:10 9.58714e-05
6 *4586:A *495:33 0.000351513
*RES
1 *4156:X *4586:A 49.9564 
*END

*D_NET *26 0.000523135
*CONN
*I *4565:A I *D sky130_fd_sc_hd__dlygate4sd3_1
*I *4158:X O *D sky130_fd_sc_hd__o211a_1
*CAP
1 *4565:A 0.000142607
2 *4158:X 0.000115874
3 *26:8 0.00025848
4 *4565:A *539:DIODE 6.17437e-06
5 *26:8 *539:DIODE 0
6 *26:8 *489:23 0
7 *26:8 *495:12 0
*RES
1 *4158:X *26:8 39.9057 
2 *26:8 *4565:A 40.5271 
*END

*D_NET *27 0.000943116
*CONN
*I *4569:A I *D sky130_fd_sc_hd__dlygate4sd3_1
*I *4160:X O *D sky130_fd_sc_hd__o211a_1
*CAP
1 *4569:A 0.000169674
2 *4160:X 5.99293e-05
3 *27:8 0.000229603
4 *4569:A *133:114 0.000308033
5 *27:8 *339:16 6.93553e-05
6 *27:8 *373:12 1.80023e-05
7 *27:8 *498:8 8.85189e-05
*RES
1 *4160:X *27:8 39.9057 
2 *27:8 *4569:A 41.48 
*END

*D_NET *28 0.0018368
*CONN
*I *4563:A I *D sky130_fd_sc_hd__dlygate4sd3_1
*I *4162:X O *D sky130_fd_sc_hd__a21o_1
*CAP
1 *4563:A 0.00012813
2 *4162:X 0.000319194
3 *28:10 0.000447324
4 *4563:A *34:8 0.000311549
5 *4563:A *100:245 5.3304e-05
6 *4563:A *100:255 5.3304e-05
7 *4563:A *267:80 0.000181125
8 *28:10 *4578:A 0.000166513
9 *28:10 *149:6 0.000176355
10 *28:10 *150:16 0
11 *28:10 *417:8 0
*RES
1 *4162:X *28:10 43.7379 
2 *28:10 *4563:A 41.9564 
*END

*D_NET *29 0.000979311
*CONN
*I *4541:A I *D sky130_fd_sc_hd__dlygate4sd3_1
*I *4164:X O *D sky130_fd_sc_hd__a21o_1
*CAP
1 *4541:A 5.21196e-05
2 *4164:X 0.000162414
3 *29:10 0.000214534
4 *4541:A *4613:A 0.000182826
5 *4541:A *406:10 9.91798e-05
6 *29:10 *4164:A1 9.75779e-05
7 *29:10 *406:10 8.62783e-05
8 *29:10 *417:8 1.22906e-05
9 *29:10 *428:10 1.94812e-05
10 *29:10 *489:23 5.26101e-05
11 *6:10 *29:10 0
*RES
1 *4164:X *29:10 41.8321 
2 *29:10 *4541:A 40.0507 
*END

*D_NET *30 0.000229847
*CONN
*I *4438:A I *D sky130_fd_sc_hd__dlygate4sd3_1
*I *4166:X O *D sky130_fd_sc_hd__a21o_1
*CAP
1 *4438:A 0
2 *4166:X 7.84972e-05
3 *30:8 7.84972e-05
4 *30:8 *438:8 0
5 *30:8 *511:10 7.28526e-05
*RES
1 *4166:X *30:8 39.9057 
2 *30:8 *4438:A 38 
*END

*D_NET *31 0.000466104
*CONN
*I *4504:A I *D sky130_fd_sc_hd__dlygate4sd3_1
*I *4168:X O *D sky130_fd_sc_hd__a21o_1
*CAP
1 *4504:A 9.37445e-05
2 *4168:X 9.67411e-05
3 *31:8 0.000190486
4 *31:8 *340:25 8.51329e-05
5 *31:8 *444:8 0
*RES
1 *4168:X *31:8 40.2579 
2 *31:8 *4504:A 39.5743 
*END

*D_NET *32 0.000773676
*CONN
*I *4447:A I *D sky130_fd_sc_hd__dlygate4sd3_1
*I *4172:X O *D sky130_fd_sc_hd__o211a_1
*CAP
1 *4447:A 8.56395e-05
2 *4172:X 8.56395e-05
3 *4447:A *362:94 0.000308033
4 *4447:A *363:12 0.000225393
5 *4447:A *373:48 6.89706e-05
*RES
1 *4172:X *4447:A 49.48 
*END

*D_NET *33 0.0001979
*CONN
*I *4602:A I *D sky130_fd_sc_hd__dlygate4sd3_1
*I *4175:X O *D sky130_fd_sc_hd__o211a_1
*CAP
1 *4602:A 3.25419e-05
2 *4175:X 3.25419e-05
3 *4602:A *362:35 9.75779e-05
4 *4602:A *456:12 3.52383e-05
*RES
1 *4175:X *4602:A 47.0979 
*END

*D_NET *34 0.002715
*CONN
*I *4578:A I *D sky130_fd_sc_hd__dlygate4sd3_1
*I *4178:X O *D sky130_fd_sc_hd__o211a_1
*CAP
1 *4578:A 0.000278175
2 *4178:X 0.000428114
3 *34:8 0.000706289
4 *4578:A *149:6 0.000267173
5 *4578:A *150:16 0
6 *4578:A *267:80 7.06078e-05
7 *4578:A *507:10 7.53384e-06
8 *34:8 *4177:B 3.42398e-05
9 *34:8 *100:255 4.5051e-05
10 *34:8 *142:119 5.0155e-05
11 *34:8 *159:10 4.60707e-05
12 *34:8 *433:10 5.79559e-05
13 *34:8 *500:10 0.000225393
14 led[3] *4578:A 2.01788e-05
15 *4563:A *34:8 0.000311549
16 *28:10 *4578:A 0.000166513
*RES
1 *4178:X *34:8 47.6736 
2 *34:8 *4578:A 44.67 
*END

*D_NET *35 0.000995397
*CONN
*I *4573:A I *D sky130_fd_sc_hd__dlygate4sd3_1
*I *4181:X O *D sky130_fd_sc_hd__o211a_1
*CAP
1 *4573:A 0
2 *4181:X 0.000229074
3 *35:10 0.000229074
4 *35:10 *551:DIODE 2.30292e-05
5 *35:10 *142:119 0.000266422
6 *35:10 *259:64 0
7 *35:10 *362:157 0.000126201
8 *35:10 *479:20 1.34914e-05
9 *35:10 *506:10 0.000108106
*RES
1 *4181:X *35:10 43.7379 
2 *35:10 *4573:A 38 
*END

*D_NET *36 0.00115958
*CONN
*I *4556:A I *D sky130_fd_sc_hd__dlygate4sd3_1
*I *4184:X O *D sky130_fd_sc_hd__o211a_1
*CAP
1 *4556:A 0
2 *4184:X 0.000377538
3 *36:10 0.000377538
4 *36:10 *4184:A1 0.000404502
5 *36:10 *4201:A1 0
6 *36:10 *305:26 0
7 *36:10 *484:10 0
*RES
1 *4184:X *36:10 44.3386 
2 *36:10 *4556:A 38 
*END

*D_NET *37 0.00046985
*CONN
*I *4580:A I *D sky130_fd_sc_hd__dlygate4sd3_1
*I *4187:X O *D sky130_fd_sc_hd__o211a_1
*CAP
1 *4580:A 8.45726e-05
2 *4187:X 7.99103e-05
3 *37:8 0.000164483
4 *4580:A *266:46 5.41385e-05
5 *37:8 *133:38 4.08537e-05
6 *37:8 *508:10 4.58924e-05
*RES
1 *4187:X *37:8 39.9057 
2 *37:8 *4580:A 39.5743 
*END

*D_NET *38 0.000105752
*CONN
*I *4445:A I *D sky130_fd_sc_hd__dlygate4sd3_1
*I *4191:X O *D sky130_fd_sc_hd__a31o_1
*CAP
1 *4445:A 8.37909e-06
2 *4191:X 8.37909e-06
3 *4445:A *166:8 5.67058e-05
4 *4445:A *167:8 3.22879e-05
*RES
1 *4191:X *4445:A 46.6214 
*END

*D_NET *39 0.000843137
*CONN
*I *4460:A I *D sky130_fd_sc_hd__dlygate4sd3_1
*I *4193:X O *D sky130_fd_sc_hd__o211a_1
*CAP
1 *4460:A 0
2 *4193:X 0.000358964
3 *39:10 0.000358964
4 *39:10 *4193:A1 5.83407e-05
5 *39:10 *4210:A 0
6 *39:10 *97:128 0
7 *39:10 *291:10 6.6869e-05
8 *39:10 *440:8 0
*RES
1 *4193:X *39:10 44.2971 
2 *39:10 *4460:A 38 
*END

*D_NET *40 0.000946355
*CONN
*I *4359:D I *D sky130_fd_sc_hd__dfxtp_1
*I *4195:X O *D sky130_fd_sc_hd__o211a_1
*CAP
1 *4359:D 0.000130177
2 *4195:X 0.000214925
3 *40:8 0.000345102
4 *4359:D *4194:B 0.000142068
5 *40:8 *267:116 0.000114083
6 *40:8 *495:10 0
*RES
1 *4195:X *40:8 42.0186 
2 *40:8 *4359:D 40.263 
*END

*D_NET *41 0.000774843
*CONN
*I *4360:D I *D sky130_fd_sc_hd__dfxtp_1
*I *4197:X O *D sky130_fd_sc_hd__o211a_1
*CAP
1 *4360:D 0
2 *4197:X 0.000214072
3 *41:8 0.000214072
4 *41:8 *4197:A1 4.00259e-06
5 *41:8 *267:118 0.000118327
6 *41:8 *267:130 0.000224369
*RES
1 *4197:X *41:8 27.293 
2 *41:8 *4360:D 23 
*END

*D_NET *42 0.000793782
*CONN
*I *4361:D I *D sky130_fd_sc_hd__dfxtp_1
*I *4199:X O *D sky130_fd_sc_hd__o211a_1
*CAP
1 *4361:D 0.000225346
2 *4199:X 7.59263e-05
3 *42:8 0.000301272
4 *4361:D *4361:CLK 9.91895e-05
5 *4361:D *134:83 3.64381e-05
6 *42:8 *97:77 0
7 *42:8 *470:10 5.561e-05
*RES
1 *4199:X *42:8 39.5536 
2 *42:8 *4361:D 41.7959 
*END

*D_NET *43 0.000514464
*CONN
*I *4535:A I *D sky130_fd_sc_hd__dlygate4sd3_1
*I *4201:X O *D sky130_fd_sc_hd__o211a_1
*CAP
1 *4535:A 4.17511e-05
2 *4201:X 0.000101058
3 *43:8 0.000142809
4 *4535:A *305:26 0.00014196
5 *4535:A *463:6 3.71369e-05
6 *43:8 *4201:A1 3.96053e-05
7 *43:8 *267:14 0
8 *43:8 *468:14 1.01436e-05
9 *43:8 *484:10 0
*RES
1 *4201:X *43:8 39.9057 
2 *43:8 *4535:A 39.5743 
*END

*D_NET *44 7.7648e-05
*CONN
*I *4533:A I *D sky130_fd_sc_hd__dlygate4sd3_1
*I *4203:X O *D sky130_fd_sc_hd__o211a_1
*CAP
1 *4533:A 2.268e-05
2 *4203:X 2.268e-05
3 *4533:A *97:45 3.22879e-05
*RES
1 *4203:X *4533:A 46.6214 
*END

*D_NET *45 0.00123485
*CONN
*I *4558:A I *D sky130_fd_sc_hd__dlygate4sd3_1
*I *4205:X O *D sky130_fd_sc_hd__o211a_1
*CAP
1 *4558:A 0
2 *4205:X 0.000259177
3 *45:8 0.000259177
4 *45:8 *174:8 0.000361027
5 *45:8 *259:8 0.000137651
6 *45:8 *306:24 0.000164514
7 *45:8 *460:143 5.3304e-05
*RES
1 *4205:X *45:8 30.3121 
2 *45:8 *4558:A 23 
*END

*D_NET *46 0.000899289
*CONN
*I *4365:D I *D sky130_fd_sc_hd__dfxtp_1
*I *4207:X O *D sky130_fd_sc_hd__o211a_1
*CAP
1 *4365:D 3.63018e-05
2 *4207:X 0.00027964
3 *46:8 0.000315942
4 *4365:D *4365:CLK 0.000189681
5 *4365:D *133:38 7.77236e-05
6 *46:8 *4205:A2 0
7 *46:8 *175:10 0
8 *46:8 *373:164 0
*RES
1 *4207:X *46:8 42.7229 
2 *46:8 *4365:D 40.0973 
*END

*D_NET *47 0.000262078
*CONN
*I *4366:D I *D sky130_fd_sc_hd__dfxtp_1
*I *4212:X O *D sky130_fd_sc_hd__o211a_1
*CAP
1 *4366:D 1.11712e-05
2 *4212:X 6.82897e-05
3 *47:8 7.9461e-05
4 *4366:D *4210:A 1.64354e-05
5 *47:8 *4366:CLK 3.46181e-05
6 *47:8 *490:8 5.21024e-05
*RES
1 *4212:X *47:8 39.5536 
2 *47:8 *4366:D 38.1916 
*END

*D_NET *48 0.0010985
*CONN
*I *4548:A I *D sky130_fd_sc_hd__dlygate4sd3_1
*I *4214:X O *D sky130_fd_sc_hd__o211a_1
*CAP
1 *4548:A 0
2 *4214:X 0.000294284
3 *48:10 0.000294284
4 *48:10 *4212:A2 0.000141879
5 *48:10 *4212:C1 0.000169674
6 *48:10 *4213:A 0
7 *48:10 *4560:A 0
8 *48:10 *177:72 0.000102093
9 *48:10 *266:104 9.6289e-05
*RES
1 *4214:X *48:10 44.7736 
2 *48:10 *4548:A 38 
*END

*D_NET *49 0.000631647
*CONN
*I *4368:D I *D sky130_fd_sc_hd__dfxtp_1
*I *4216:X O *D sky130_fd_sc_hd__o211a_1
*CAP
1 *4368:D 3.6576e-05
2 *4216:X 0.000169159
3 *49:10 0.000205735
4 *4368:D *476:16 8.38361e-05
5 *49:10 *266:151 0.000110922
6 *49:10 *290:16 2.54193e-05
*RES
1 *4216:X *49:10 40.6514 
2 *49:10 *4368:D 38.9373 
*END

*D_NET *50 9.87992e-05
*CONN
*I *4540:A I *D sky130_fd_sc_hd__dlygate4sd3_1
*I *4218:X O *D sky130_fd_sc_hd__o211a_1
*CAP
1 *4540:A 2.10467e-05
2 *4218:X 2.10467e-05
3 *4540:A *468:42 5.67058e-05
*RES
1 *4218:X *4540:A 46.6214 
*END

*D_NET *51 0.000621394
*CONN
*I *4537:A I *D sky130_fd_sc_hd__dlygate4sd3_1
*I *4220:X O *D sky130_fd_sc_hd__o211a_1
*CAP
1 *4537:A 3.38477e-05
2 *4220:X 0.000104964
3 *51:8 0.000138811
4 *4537:A *4217:A 0.000141052
5 *4537:A *184:8 0.000139357
6 *51:8 *296:8 0
7 *51:8 *461:25 6.33614e-05
*RES
1 *4220:X *51:8 39.9057 
2 *51:8 *4537:A 39.5743 
*END

*D_NET *52 0.00059366
*CONN
*I *4371:D I *D sky130_fd_sc_hd__dfxtp_1
*I *4222:X O *D sky130_fd_sc_hd__o211a_1
*CAP
1 *4371:D 0.000122364
2 *4222:X 4.96246e-05
3 *52:8 0.000171988
4 *4371:D *4371:CLK 5.50049e-05
5 *4371:D *134:79 2.49733e-05
6 *52:8 *266:79 5.56306e-05
7 *52:8 *457:10 0.000114074
*RES
1 *4222:X *52:8 39.5536 
2 *52:8 *4371:D 39.8902 
*END

*D_NET *53 0.000260314
*CONN
*I *4527:A I *D sky130_fd_sc_hd__dlygate4sd3_1
*I *4224:X O *D sky130_fd_sc_hd__o211a_1
*CAP
1 *4527:A 0
2 *4224:X 9.31635e-05
3 *53:8 9.31635e-05
4 *53:8 *177:27 0
5 *53:8 *178:10 1.83667e-05
6 *53:8 *178:12 5.56203e-05
*RES
1 *4224:X *53:8 39.9057 
2 *53:8 *4527:A 38 
*END

*D_NET *54 0.00193442
*CONN
*I *4482:A I *D sky130_fd_sc_hd__dlygate4sd3_1
*I *4226:X O *D sky130_fd_sc_hd__o211a_1
*CAP
1 *4482:A 0
2 *4226:X 0.000542961
3 *54:8 0.000542961
4 *54:8 *4471:A 0.000654928
5 *54:8 *187:6 0.000193575
*RES
1 *4226:X *54:8 34.6 
2 *54:8 *4482:A 23 
*END

*D_NET *55 0.000375273
*CONN
*I *4374:D I *D sky130_fd_sc_hd__dfxtp_1
*I *4230:X O *D sky130_fd_sc_hd__and3_1
*CAP
1 *4374:D 8.85267e-05
2 *4230:X 8.85267e-05
3 *4374:D *4230:C 1.14154e-05
4 *4374:D *4231:A3 9.67116e-05
5 *4374:D *4374:CLK 9.0093e-05
*RES
1 *4230:X *4374:D 48.7964 
*END

*D_NET *56 0.000548367
*CONN
*I *4375:D I *D sky130_fd_sc_hd__dfxtp_1
*I *4233:X O *D sky130_fd_sc_hd__and3b_1
*CAP
1 *4375:D 1.11297e-05
2 *4233:X 0.000123179
3 *56:10 0.000134308
4 *4375:D *188:10 4.9054e-06
5 *56:10 *4233:C 2.64616e-05
6 *56:10 *4559:A 0.000164282
7 *56:10 *488:47 8.41012e-05
*RES
1 *4233:X *56:10 40.8793 
2 *56:10 *4375:D 38.1916 
*END

*D_NET *57 0.00109997
*CONN
*I *4376:D I *D sky130_fd_sc_hd__dfxtp_1
*I *4236:X O *D sky130_fd_sc_hd__and3_1
*CAP
1 *4376:D 0.000161285
2 *4236:X 0.000323663
3 *57:8 0.000484948
4 *57:8 *4140:D_N 9.48381e-06
5 *57:8 *4234:A 5.34939e-05
6 *57:8 *192:57 0
7 *57:8 *270:10 0
8 *57:8 *357:8 6.70914e-05
9 *57:8 *380:10 0
*RES
1 *4236:X *57:8 44.4836 
2 *57:8 *4376:D 40.5737 
*END

*D_NET *58 0.000201802
*CONN
*I *4443:A I *D sky130_fd_sc_hd__dlygate4sd3_1
*I *4239:X O *D sky130_fd_sc_hd__and3_1
*CAP
1 *4443:A 0.000100901
2 *4239:X 0.000100901
*RES
1 *4239:X *4443:A 47.595 
*END

*D_NET *59 0.000605262
*CONN
*I *4554:A I *D sky130_fd_sc_hd__dlygate4sd3_1
*I *4241:X O *D sky130_fd_sc_hd__o211a_1
*CAP
1 *4554:A 0.000146009
2 *4241:X 0.000146009
3 *4554:A *4133:A_N 4.08664e-05
4 *4554:A *4241:A1 0.000272377
*RES
1 *4241:X *4554:A 49.48 
*END

*D_NET *60 0.000598815
*CONN
*I *4379:D I *D sky130_fd_sc_hd__dfxtp_1
*I *4244:X O *D sky130_fd_sc_hd__and3b_1
*CAP
1 *4379:D 0.000173164
2 *4244:X 0.000126244
3 *60:8 0.000299407
4 *60:8 *134:40 0
5 *60:8 *273:10 0
6 *60:8 *460:50 0
*RES
1 *4244:X *60:8 40.2579 
2 *60:8 *4379:D 41.0502 
*END

*D_NET *61 0.00214853
*CONN
*I *4595:A I *D sky130_fd_sc_hd__dlygate4sd3_1
*I *4247:Y O *D sky130_fd_sc_hd__nor2_1
*CAP
1 *4595:A 0
2 *4247:Y 0.000873571
3 *61:12 0.000873571
4 *61:12 *4245:A3 0.000214016
5 *61:12 *4247:A 2.62931e-05
6 *61:12 *4247:B 2.93845e-05
7 *61:12 *4594:A 2.93845e-05
8 *61:12 *200:6 7.75305e-05
9 *61:12 *488:78 2.47815e-05
*RES
1 *4247:Y *61:12 36.0707 
2 *61:12 *4595:A 23 
*END

*D_NET *62 0.000132753
*CONN
*I *4582:A I *D sky130_fd_sc_hd__dlygate4sd3_1
*I *4249:Y O *D sky130_fd_sc_hd__a21oi_1
*CAP
1 *4582:A 5.48617e-05
2 *4249:Y 5.48617e-05
3 *4582:A *510:14 2.30292e-05
*RES
1 *4249:Y *4582:A 47.1186 
*END

*D_NET *63 0.00169806
*CONN
*I *4382:D I *D sky130_fd_sc_hd__dfxtp_1
*I *4252:X O *D sky130_fd_sc_hd__and3b_1
*CAP
1 *4382:D 0.000153489
2 *4252:X 0.000281399
3 *63:8 0.000434889
4 *4382:D *140:18 0.000102738
5 *4382:D *260:96 0.000241973
6 *63:8 *200:37 0
7 *63:8 *203:8 0.000274939
8 *63:8 *259:133 0.000115382
9 *63:8 *386:10 9.32509e-05
*RES
1 *4252:X *63:8 45.54 
2 *63:8 *4382:D 42.003 
*END

*D_NET *64 0.000483595
*CONN
*I *4470:A I *D sky130_fd_sc_hd__dlygate4sd3_1
*I *4255:Y O *D sky130_fd_sc_hd__nor2_1
*CAP
1 *4470:A 6.86276e-05
2 *4255:Y 4.9965e-05
3 *64:8 0.000118593
4 *4470:A *434:20 3.16784e-05
5 *64:8 *200:37 7.28526e-05
6 *64:8 *386:10 0.000141879
*RES
1 *4255:Y *64:8 39.9057 
2 *64:8 *4470:A 39.0979 
*END

*D_NET *65 0.000702418
*CONN
*I *4467:A I *D sky130_fd_sc_hd__dlygate4sd3_1
*I *4258:Y O *D sky130_fd_sc_hd__nor2_1
*CAP
1 *4467:A 5.872e-05
2 *4258:Y 5.872e-05
3 *4467:A *382:6 0.000317553
4 *4467:A *434:16 0.000143655
5 *4467:A *434:20 0.00012377
*RES
1 *4258:Y *4467:A 49.9564 
*END

*D_NET *66 0.000729897
*CONN
*I *4385:D I *D sky130_fd_sc_hd__dfxtp_1
*I *4261:Y O *D sky130_fd_sc_hd__nor2_1
*CAP
1 *4385:D 3.47594e-05
2 *4261:Y 0.00024978
3 *66:10 0.000284539
4 *4385:D *4385:CLK 8.90341e-05
5 *66:10 *4261:A 1.76557e-05
6 *66:10 *4261:B 5.41288e-05
7 *66:10 *207:36 0
8 *66:10 *260:24 0
*RES
1 *4261:Y *66:10 41.8321 
2 *66:10 *4385:D 38.9943 
*END

*D_NET *67 0.00063018
*CONN
*I *4496:A I *D sky130_fd_sc_hd__dlygate4sd3_1
*I *4264:Y O *D sky130_fd_sc_hd__nor2_1
*CAP
1 *4496:A 0.000144923
2 *4264:Y 0.000144923
3 *4496:A *4262:C 5.83345e-06
4 *4496:A *4264:A 9.58714e-05
5 *4496:A *211:21 0.000212168
6 *4496:A *410:14 2.64616e-05
*RES
1 *4264:Y *4496:A 49.48 
*END

*D_NET *68 0.000361603
*CONN
*I *4462:A I *D sky130_fd_sc_hd__dlygate4sd3_1
*I *4267:Y O *D sky130_fd_sc_hd__nor2_1
*CAP
1 *4462:A 0
2 *4267:Y 0.000123385
3 *68:10 0.000123385
4 *68:10 *4267:A 6.74483e-05
5 *68:10 *4267:B 7.53384e-06
6 *68:10 *377:8 3.98496e-05
*RES
1 *4267:Y *68:10 40.5271 
2 *68:10 *4462:A 38 
*END

*D_NET *69 0.000396163
*CONN
*I *4505:A I *D sky130_fd_sc_hd__dlygate4sd3_1
*I *4270:Y O *D sky130_fd_sc_hd__nor2_1
*CAP
1 *4505:A 5.07685e-05
2 *4270:Y 8.69094e-05
3 *69:8 0.000137678
4 *4505:A *420:10 3.22879e-05
5 *69:8 *215:8 0
6 *69:8 *262:16 0
7 *69:8 *420:10 8.85189e-05
*RES
1 *4270:Y *69:8 39.9057 
2 *69:8 *4505:A 39.0979 
*END

*D_NET *70 0.000431094
*CONN
*I *4477:A I *D sky130_fd_sc_hd__dlygate4sd3_1
*I *4273:Y O *D sky130_fd_sc_hd__nor2_1
*CAP
1 *4477:A 0
2 *4273:Y 0.000181505
3 *70:10 0.000181505
4 *70:10 *4273:B 2.93747e-05
5 *70:10 *4274:C 0
6 *70:10 *217:10 2.5415e-05
7 *70:10 *274:8 1.32939e-05
*RES
1 *4273:Y *70:10 41.0036 
2 *70:10 *4477:A 38 
*END

*D_NET *71 0.000419504
*CONN
*I *4455:A I *D sky130_fd_sc_hd__dlygate4sd3_1
*I *4276:Y O *D sky130_fd_sc_hd__nor2_1
*CAP
1 *4455:A 6.80978e-05
2 *4276:Y 0.000141654
3 *71:8 0.000209752
4 *71:8 *4276:A 0
*RES
1 *4276:Y *71:8 40.61 
2 *71:8 *4455:A 39.0979 
*END

*D_NET *72 0.00217487
*CONN
*I *4598:A I *D sky130_fd_sc_hd__dlygate4sd3_1
*I *4278:Y O *D sky130_fd_sc_hd__a21oi_1
*CAP
1 *4598:A 0.000422064
2 *4278:Y 0.000195641
3 *72:8 0.000617704
4 *4598:A *4276:A 2.82307e-05
5 *4598:A *4349:CLK 0
6 *4598:A *222:10 0
7 *4598:A *262:82 0
8 *4598:A *344:10 9.39056e-05
9 *4598:A *344:12 5.31444e-05
10 *4598:A *344:14 5.6652e-05
11 *4598:A *400:14 4.23714e-05
12 *72:8 *140:169 0.000268074
13 *72:8 *219:17 0.000355023
14 *72:8 *262:73 4.2062e-05
*RES
1 *4278:Y *72:8 43.3857 
2 *72:8 *4598:A 46.9486 
*END

*D_NET *73 0.00100014
*CONN
*I *4486:A I *D sky130_fd_sc_hd__dlygate4sd3_1
*I *4281:X O *D sky130_fd_sc_hd__and3_1
*CAP
1 *4486:A 0
2 *4281:X 0.000382863
3 *73:8 0.000382863
4 *73:8 *4281:C 2.30292e-05
5 *73:8 *4485:A 7.44257e-05
6 *73:8 *140:72 0.000136961
*RES
1 *4281:X *73:8 30.7886 
2 *73:8 *4486:A 23 
*END

*D_NET *74 0.00152335
*CONN
*I *4519:A I *D sky130_fd_sc_hd__dlygate4sd3_1
*I *4282:X O *D sky130_fd_sc_hd__or2_1
*CAP
1 *4519:A 0
2 *4282:X 0.00057529
3 *74:10 0.00057529
4 *74:10 *4282:B 1.14762e-05
5 *74:10 *4329:A 0.000137651
6 *74:10 *4546:A 2.32101e-05
7 *74:10 *100:20 0.000173192
8 *74:10 *100:22 2.7237e-05
9 *74:10 *252:33 0
*RES
1 *4282:X *74:10 46.7207 
2 *74:10 *4519:A 38 
*END

*D_NET *75 0.000421078
*CONN
*I *4398:D I *D sky130_fd_sc_hd__dfxtp_1
*I *4283:X O *D sky130_fd_sc_hd__or2_1
*CAP
1 *4398:D 1.13183e-05
2 *4283:X 0.000164506
3 *75:10 0.000175824
4 *4398:D *4398:CLK 1.64354e-05
5 *75:10 *4252:B 0
6 *75:10 *4283:A 1.73399e-05
7 *75:10 *140:18 0
8 *75:10 *259:116 3.56537e-05
*RES
1 *4283:X *75:10 40.8793 
2 *75:10 *4398:D 38.1916 
*END

*D_NET *76 0.000919871
*CONN
*I *4520:A I *D sky130_fd_sc_hd__dlygate4sd3_1
*I *4284:X O *D sky130_fd_sc_hd__a31o_1
*CAP
1 *4520:A 6.18077e-05
2 *4284:X 0.000188058
3 *76:8 0.000249866
4 *4520:A *307:23 8.1796e-05
5 *76:8 *100:79 0.000326053
6 *76:8 *142:69 1.22906e-05
7 *76:8 *307:23 0
*RES
1 *4284:X *76:8 42.7229 
2 *76:8 *4520:A 39.5743 
*END

*D_NET *77 0.00143311
*CONN
*I *4499:A I *D sky130_fd_sc_hd__dlygate4sd3_1
*I *4290:X O *D sky130_fd_sc_hd__and3b_1
*CAP
1 *4499:A 5.12101e-05
2 *4290:X 0.000212211
3 *77:8 0.000263421
4 *4499:A *4125:C 4.17736e-05
5 *4499:A *4288:B1 0.000317553
6 *4499:A *130:68 0.000359326
7 *77:8 *130:68 3.47781e-05
8 *77:8 *227:8 0
9 *77:8 *228:8 0.000100724
10 *77:8 *415:8 5.21127e-05
*RES
1 *4290:X *77:8 42.7229 
2 *77:8 *4499:A 41.9564 
*END

*D_NET *78 0.000804042
*CONN
*I *4401:D I *D sky130_fd_sc_hd__dfxtp_1
*I *4293:X O *D sky130_fd_sc_hd__and3b_1
*CAP
1 *4401:D 0.000119728
2 *4293:X 0.000116981
3 *78:8 0.00023671
4 *4401:D *4290:B 9.8971e-06
5 *4401:D *4402:CLK 0.000129529
6 *4401:D *265:18 2.32004e-05
7 *78:8 *228:8 0
8 *78:8 *228:14 0
9 *78:8 *229:10 2.70469e-05
10 *78:8 *265:18 0.000140949
*RES
1 *4293:X *78:8 40.61 
2 *78:8 *4401:D 40.3666 
*END

*D_NET *79 0.000289073
*CONN
*I *4402:D I *D sky130_fd_sc_hd__dfxtp_1
*I *4296:X O *D sky130_fd_sc_hd__and3b_1
*CAP
1 *4402:D 0.000104889
2 *4296:X 0.000104889
3 *4402:D *4296:C 1.91381e-05
4 *4402:D *4402:CLK 2.4754e-05
5 *4402:D *225:48 3.54023e-05
*RES
1 *4296:X *4402:D 48.3873 
*END

*D_NET *80 0.00163861
*CONN
*I *4513:A I *D sky130_fd_sc_hd__dlygate4sd3_1
*I *4298:X O *D sky130_fd_sc_hd__and2_1
*CAP
1 *4513:A 0.000442652
2 *4298:X 0.000130007
3 *80:8 0.000572659
4 *4513:A *4403:CLK 0
5 *4513:A *225:48 0.000248934
6 *4513:A *311:10 6.6869e-05
7 *4513:A *422:31 0
8 *4513:A *430:8 0
9 *80:8 *225:48 0.000103647
10 *574:DIODE *4513:A 7.38424e-05
*RES
1 *4298:X *80:8 40.0507 
2 *80:8 *4513:A 48.3571 
*END

*D_NET *81 0.000501038
*CONN
*I *4404:D I *D sky130_fd_sc_hd__dfxtp_1
*I *4301:X O *D sky130_fd_sc_hd__and3b_1
*CAP
1 *4404:D 6.67255e-05
2 *4301:X 7.7145e-05
3 *81:8 0.000143871
4 *4404:D *130:55 9.81682e-05
5 *81:8 *234:8 0.000110913
6 *81:8 *236:10 4.21594e-06
*RES
1 *4301:X *81:8 39.5536 
2 *81:8 *4404:D 39.1445 
*END

*D_NET *82 0.000847069
*CONN
*I *4517:A I *D sky130_fd_sc_hd__dlygate4sd3_1
*I *4303:Y O *D sky130_fd_sc_hd__a21oi_1
*CAP
1 *4517:A 0
2 *4303:Y 0.000239309
3 *82:10 0.000239309
4 *82:10 *4303:A1 5.14746e-06
5 *82:10 *4406:CLK 5.37348e-06
6 *82:10 *236:10 0.00035793
7 *82:10 *264:14 0
8 *82:10 *447:10 0
*RES
1 *4303:Y *82:10 43.3443 
2 *82:10 *4517:A 38 
*END

*D_NET *83 0.00107202
*CONN
*I *4474:A I *D sky130_fd_sc_hd__dlygate4sd3_1
*I *4307:X O *D sky130_fd_sc_hd__and3b_1
*CAP
1 *4474:A 0
2 *4307:X 0.000424348
3 *83:10 0.000424348
4 *83:10 *4303:A1 0.000181131
5 *83:10 *4304:B1 0
6 *83:10 *4307:B 3.82058e-06
7 *83:10 *237:10 3.83778e-05
8 *83:10 *390:10 0
*RES
1 *4307:X *83:10 43.8621 
2 *83:10 *4474:A 38 
*END

*D_NET *84 9.87992e-05
*CONN
*I *4439:A I *D sky130_fd_sc_hd__dlygate4sd3_1
*I *4309:X O *D sky130_fd_sc_hd__o211a_1
*CAP
1 *4439:A 2.10467e-05
2 *4309:X 2.10467e-05
3 *4439:A *353:37 5.67058e-05
*RES
1 *4309:X *4439:A 46.6214 
*END

*D_NET *85 0.000550952
*CONN
*I *4492:A I *D sky130_fd_sc_hd__dlygate4sd3_1
*I *4312:X O *D sky130_fd_sc_hd__and3b_1
*CAP
1 *4492:A 0
2 *4312:X 0.000268078
3 *85:10 0.000268078
4 *85:10 *144:68 1.47955e-05
5 *85:10 *408:10 0
*RES
1 *4312:X *85:10 41.48 
2 *85:10 *4492:A 38 
*END

*D_NET *86 0.000960416
*CONN
*I *4589:A I *D sky130_fd_sc_hd__dlygate4sd3_1
*I *4315:Y O *D sky130_fd_sc_hd__nor2_1
*CAP
1 *4589:A 0
2 *4315:Y 0.00015866
3 *86:8 0.00015866
4 *86:8 *4314:A1 0.000225393
5 *86:8 *4314:A2 0.000185428
6 *86:8 *242:48 0.000151861
7 *86:8 *244:10 2.65879e-05
8 *86:8 *261:46 1.76557e-05
9 *86:8 *516:14 3.61695e-05
*RES
1 *4315:Y *86:8 28.4064 
2 *86:8 *4589:A 23 
*END

*D_NET *87 0.000957422
*CONN
*I *4592:A I *D sky130_fd_sc_hd__dlygate4sd3_1
*I *4318:Y O *D sky130_fd_sc_hd__nor2_1
*CAP
1 *4592:A 0.000119361
2 *4318:Y 0.000284925
3 *87:10 0.000404287
4 *87:10 *4318:B 4.04598e-06
5 *87:10 *239:10 7.03766e-05
6 *87:10 *240:10 0
7 *87:10 *264:49 7.44257e-05
*RES
1 *4318:Y *87:10 42.4329 
2 *87:10 *4592:A 40.0507 
*END

*D_NET *88 0.000189636
*CONN
*I *4525:A I *D sky130_fd_sc_hd__dlygate4sd3_1
*I *4321:Y O *D sky130_fd_sc_hd__nor2_1
*CAP
1 *4525:A 6.0176e-05
2 *4321:Y 6.0176e-05
3 *4525:A *4321:A 1.59094e-05
4 *4525:A *144:174 4.9662e-05
5 *4525:A *247:12 3.7122e-06
*RES
1 *4321:Y *4525:A 47.0979 
*END

*D_NET *89 0.000152716
*CONN
*I *4529:A I *D sky130_fd_sc_hd__dlygate4sd3_1
*I *4323:Y O *D sky130_fd_sc_hd__a21oi_1
*CAP
1 *4529:A 3.18614e-05
2 *4323:Y 3.18614e-05
3 *4529:A *4322:A1 3.22879e-05
4 *4529:A *4322:A2 5.67058e-05
*RES
1 *4323:Y *4529:A 47.1186 
*END

*D_NET *90 0.000574833
*CONN
*I *4501:A I *D sky130_fd_sc_hd__dlygate4sd3_1
*I *4326:X O *D sky130_fd_sc_hd__and3b_1
*CAP
1 *4501:A 0.000144906
2 *4326:X 0.000144906
3 *4501:A *4322:A2 3.91386e-05
4 *4501:A *4326:B 5.41288e-05
5 *4501:A *247:29 1.24376e-05
6 *4501:A *251:12 5.67058e-05
7 *4501:A *458:46 0.00012261
*RES
1 *4326:X *4501:A 49.9771 
*END

*D_NET *91 0.0002836
*CONN
*I *4546:A I *D sky130_fd_sc_hd__dlygate4sd3_1
*I *4329:Y O *D sky130_fd_sc_hd__nor2_1
*CAP
1 *4546:A 5.76845e-05
2 *4329:Y 5.76845e-05
3 *4546:A *4282:B 6.17437e-06
4 *4546:A *4329:A 9.67842e-05
5 *4546:A *100:20 4.2062e-05
6 *74:10 *4546:A 2.32101e-05
*RES
1 *4329:Y *4546:A 47.5743 
*END

*D_NET *92 0.00129042
*CONN
*I *4543:A I *D sky130_fd_sc_hd__dlygate4sd3_1
*I *4331:Y O *D sky130_fd_sc_hd__a21oi_1
*CAP
1 *4543:A 2.5164e-05
2 *4331:Y 0.000329365
3 *92:10 0.000354529
4 *4543:A *264:140 5.50106e-05
5 *92:10 *4331:A1 9.4713e-05
6 *92:10 *4333:A 9.63918e-05
7 *92:10 *4333:B 7.27182e-05
8 *92:10 *4399:CLK 3.7122e-06
9 *92:10 *252:37 0.000139352
10 *92:10 *256:10 5.50106e-05
11 *92:10 *264:140 0
12 *92:10 *308:16 2.88036e-05
13 *92:10 *449:10 3.56537e-05
*RES
1 *4331:Y *92:10 45.5193 
2 *92:10 *4543:A 38.6214 
*END

*D_NET *93 0.00132773
*CONN
*I *4489:A I *D sky130_fd_sc_hd__dlygate4sd3_1
*I *4334:X O *D sky130_fd_sc_hd__and3_1
*CAP
1 *4489:A 0
2 *4334:X 0.000416518
3 *93:10 0.000416518
4 *93:10 *252:70 0.000176355
5 *93:10 *255:10 6.68793e-05
6 *93:10 *316:12 8.4047e-05
7 *93:10 *404:10 0
8 *93:10 *471:8 8.82627e-05
9 *93:10 *471:12 7.91493e-05
*RES
1 *4334:X *93:10 46.2029 
2 *93:10 *4489:A 38 
*END

*D_NET *94 0.00070725
*CONN
*I *4604:A I *D sky130_fd_sc_hd__dlygate4sd3_1
*I *4336:X O *D sky130_fd_sc_hd__o211a_1
*CAP
1 *4604:A 0
2 *4336:X 0.000177049
3 *94:6 0.000177049
4 *94:6 *4336:A1 0.000226295
5 *94:6 *144:122 9.74722e-05
6 *94:6 *352:10 2.93845e-05
*RES
1 *4336:X *94:6 27.4329 
2 *94:6 *4604:A 23 
*END

*D_NET *95 0.0044319
*CONN
*I *4483:A I *D sky130_fd_sc_hd__dlygate4sd3_1
*I *4338:X O *D sky130_fd_sc_hd__or3_1
*CAP
1 *4483:A 0
2 *4338:X 0.000869652
3 *95:14 0.000428174
4 *95:6 0.00129783
5 *95:6 *4338:A 0.000261951
6 *95:6 *4338:B 4.75206e-05
7 *95:6 *100:189 1.23374e-05
8 *95:6 *258:8 8.06804e-06
9 *95:6 *327:18 0.000362472
10 *95:6 *351:22 1.40958e-05
11 *95:14 *4425:A 9.41704e-05
12 *95:14 *101:10 0.00015544
13 *95:14 *265:10 0.000357205
14 *95:14 *327:18 1.54642e-05
15 *95:14 *335:10 0.00015544
16 *95:14 *362:47 0.000255492
17 *95:14 *399:8 9.65869e-05
*RES
1 *4338:X *95:6 35.0557 
2 *95:6 *95:14 40.9579 
3 *95:14 *4483:A 23 
*END

*D_NET *96 0.00126967
*CONN
*I *4336:A1 I *D sky130_fd_sc_hd__o211a_1
*I *4096:Y O *D sky130_fd_sc_hd__inv_2
*CAP
1 *4336:A1 9.24115e-05
2 *4096:Y 0.000165062
3 *96:10 0.000257474
4 *4336:A1 *144:122 0.000356718
5 *96:10 *142:69 0
6 *96:10 *259:14 0.000164282
7 *96:10 *259:92 3.7122e-06
8 *96:10 *350:6 3.7122e-06
9 *94:6 *4336:A1 0.000226295
*RES
1 *4096:Y *96:10 40.8793 
2 *96:10 *4336:A1 41.9564 
*END

*D_NET *97 0.0164397
*CONN
*I *4227:A I *D sky130_fd_sc_hd__and3_1
*I *4135:C1 I *D sky130_fd_sc_hd__a211oi_4
*I *4207:A2 I *D sky130_fd_sc_hd__o211a_1
*I *4195:A2 I *D sky130_fd_sc_hd__o211a_1
*I *4197:A2 I *D sky130_fd_sc_hd__o211a_1
*I *4193:A2 I *D sky130_fd_sc_hd__o211a_1
*I *4199:A2 I *D sky130_fd_sc_hd__o211a_1
*I *4201:A2 I *D sky130_fd_sc_hd__o211a_1
*I *4203:A2 I *D sky130_fd_sc_hd__o211a_1
*I *4205:A2 I *D sky130_fd_sc_hd__o211a_1
*I *4097:Y O *D sky130_fd_sc_hd__inv_2
*CAP
1 *4227:A 0.000213901
2 *4135:C1 0
3 *4207:A2 0
4 *4195:A2 0
5 *4197:A2 2.658e-05
6 *4193:A2 0.000122865
7 *4199:A2 0
8 *4201:A2 1.75705e-05
9 *4203:A2 0
10 *4205:A2 0.000524803
11 *4097:Y 0
12 *97:128 0.000456836
13 *97:103 0.000585067
14 *97:88 0.000479068
15 *97:77 0.00104879
16 *97:62 0.00132141
17 *97:45 0.00153375
18 *97:24 0.00154895
19 *97:22 0.000548975
20 *97:12 0.000771816
21 *97:6 0.000436742
22 *4193:A2 *4193:B1 0.000181092
23 *4193:A2 *4197:A1 1.76557e-05
24 *4197:A2 *267:130 0
25 *4197:A2 *362:185 1.14452e-05
26 *4197:A2 *362:219 3.35885e-06
27 *4201:A2 *4201:B1 1.14154e-05
28 *4205:A2 *4205:C1 0.00010018
29 *4205:A2 *259:8 7.42621e-05
30 *4205:A2 *306:24 0
31 *4205:A2 *373:164 0.00027523
32 *4205:A2 *373:173 1.05441e-05
33 *4227:A *4227:C 0
34 *4227:A *123:8 0.000224345
35 *4227:A *460:12 2.24048e-05
36 *4227:A *460:25 0.000244526
37 *4227:A *460:42 0.000166522
38 *4227:A *488:47 0
39 *97:12 *123:8 0.000194318
40 *97:12 *131:10 0
41 *97:12 *132:8 0.000140958
42 *97:12 *133:8 4.71331e-05
43 *97:12 *180:19 0
44 *97:12 *460:12 0.00010404
45 *97:12 *460:109 5.12254e-05
46 *97:22 *4133:B 6.11286e-05
47 *97:22 *4211:B 0.000168754
48 *97:22 *4536:A 0.000141052
49 *97:22 *100:374 0.0002246
50 *97:22 *131:10 0
51 *97:22 *133:10 0.000528186
52 *97:22 *180:19 0
53 *97:22 *259:160 1.03836e-05
54 *97:22 *272:8 0
55 *97:22 *460:126 0.000157138
56 *97:45 *4203:A1 2.90712e-05
57 *97:45 *4203:B1 2.77232e-05
58 *97:45 *4373:D 0.000226306
59 *97:45 *298:10 0.000110397
60 *97:45 *373:173 1.20966e-05
61 *97:45 *373:216 0.000146848
62 *97:45 *455:14 0
63 *97:45 *486:6 0.000228909
64 *97:45 *486:14 0.000181125
65 *97:62 *4201:C1 0.000141967
66 *97:62 *4203:A1 3.66485e-05
67 *97:62 *4203:B1 8.38685e-05
68 *97:62 *4203:C1 5.67058e-05
69 *97:62 *373:355 1.32939e-05
70 *97:62 *373:359 9.16335e-05
71 *97:77 *4181:A2 2.02872e-05
72 *97:77 *4181:C1 5.3304e-05
73 *97:77 *267:14 8.23069e-05
74 *97:77 *267:38 7.06124e-05
75 *97:77 *362:170 1.69668e-05
76 *97:77 *373:343 1.14452e-05
77 *97:77 *373:355 0.00040335
78 *97:77 *460:175 0
79 *97:77 *464:8 5.21024e-05
80 *97:77 *470:10 0
81 *97:77 *491:12 0.000357126
82 *97:88 *169:10 0.000138727
83 *97:88 *171:10 0.000140958
84 *97:88 *362:170 4.21594e-06
85 *97:88 *362:185 9.78675e-05
86 *97:103 *4193:B1 0.000129522
87 *97:103 *362:219 5.50049e-05
88 *97:128 *4195:A1 0.000238718
89 *97:128 *170:8 1.59312e-05
90 *97:128 *267:130 0.000137651
91 *97:128 *362:219 7.3525e-05
92 *97:128 *479:10 0.000112198
93 *4533:A *97:45 3.22879e-05
94 *39:10 *97:128 0
95 *42:8 *97:77 0
96 *46:8 *4205:A2 0
*RES
1 *4097:Y *97:6 38 
2 *97:6 *97:12 21.1729 
3 *97:12 *97:22 43.775 
4 *97:22 *97:24 15 
5 *97:24 *4205:A2 48.5021 
6 *97:24 *97:45 35.5279 
7 *97:45 *4203:A2 23 
8 *97:45 *97:62 11.2064 
9 *97:62 *4201:A2 23.4971 
10 *97:62 *97:77 33.9743 
11 *97:77 *4199:A2 38 
12 *97:77 *97:88 21.4836 
13 *97:88 *4193:A2 25.9 
14 *97:88 *97:103 17.3718 
15 *97:103 *4197:A2 38.6732 
16 *97:103 *97:128 38.5032 
17 *97:128 *4195:A2 38 
18 *97:22 *4207:A2 23 
19 *97:12 *4135:C1 23 
20 *97:6 *4227:A 44.1314 
*END

*D_NET *98 0.000883994
*CONN
*I *4153:A1 I *D sky130_fd_sc_hd__a21o_1
*I *4098:Y O *D sky130_fd_sc_hd__inv_2
*CAP
1 *4153:A1 0.000150289
2 *4098:Y 8.64042e-05
3 *98:10 0.000236693
4 *4153:A1 *537:DIODE 0.0001844
5 *98:10 *133:159 0.000142161
6 *98:10 *267:101 8.4047e-05
*RES
1 *4098:Y *98:10 39.8229 
2 *98:10 *4153:A1 40.0507 
*END

*D_NET *99 0.00055948
*CONN
*I *4227:B I *D sky130_fd_sc_hd__and3_1
*I *4099:Y O *D sky130_fd_sc_hd__inv_2
*CAP
1 *4227:B 0.000129919
2 *4099:Y 6.55323e-05
3 *99:8 0.000195452
4 *4227:B *4375:CLK 7.27182e-05
5 *4227:B *460:42 5.50049e-05
6 *99:8 *373:270 4.08537e-05
7 *99:8 *488:47 0
*RES
1 *4099:Y *99:8 39.2014 
2 *99:8 *4227:B 40.0507 
*END

*D_NET *100 0.0378817
*CONN
*I *555:DIODE I *D sky130_fd_sc_hd__diode_2
*I *525:DIODE I *D sky130_fd_sc_hd__diode_2
*I *4211:B I *D sky130_fd_sc_hd__nor2_2
*I *4124:C1 I *D sky130_fd_sc_hd__a221o_1
*I *4144:A I *D sky130_fd_sc_hd__nor2_4
*I *531:DIODE I *D sky130_fd_sc_hd__diode_2
*I *4165:B1 I *D sky130_fd_sc_hd__a21o_1
*I *545:DIODE I *D sky130_fd_sc_hd__diode_2
*I *4150:A I *D sky130_fd_sc_hd__nor2_4
*I *541:DIODE I *D sky130_fd_sc_hd__diode_2
*I *4153:B1 I *D sky130_fd_sc_hd__a21o_1
*I *537:DIODE I *D sky130_fd_sc_hd__diode_2
*I *4163:B1 I *D sky130_fd_sc_hd__a21o_1
*I *4161:B1 I *D sky130_fd_sc_hd__a21o_1
*I *543:DIODE I *D sky130_fd_sc_hd__diode_2
*I *4338:A I *D sky130_fd_sc_hd__or3_1
*I *561:DIODE I *D sky130_fd_sc_hd__diode_2
*I *4285:B1 I *D sky130_fd_sc_hd__a2111o_1
*I *4146:A I *D sky130_fd_sc_hd__nor3_1
*I *533:DIODE I *D sky130_fd_sc_hd__diode_2
*I *528:DIODE I *D sky130_fd_sc_hd__diode_2
*I *4139:C1 I *D sky130_fd_sc_hd__a221o_1
*I *560:DIODE I *D sky130_fd_sc_hd__diode_2
*I *534:DIODE I *D sky130_fd_sc_hd__diode_2
*I *524:DIODE I *D sky130_fd_sc_hd__diode_2
*I *547:DIODE I *D sky130_fd_sc_hd__diode_2
*I *4167:B1 I *D sky130_fd_sc_hd__a21o_1
*I *4282:A I *D sky130_fd_sc_hd__or2_1
*I *557:DIODE I *D sky130_fd_sc_hd__diode_2
*I *558:DIODE I *D sky130_fd_sc_hd__diode_2
*I *4283:A I *D sky130_fd_sc_hd__or2_1
*I *4100:Y O *D sky130_fd_sc_hd__inv_4
*CAP
1 *555:DIODE 0
2 *525:DIODE 0
3 *4211:B 0.000102583
4 *4124:C1 0
5 *4144:A 1.54697e-05
6 *531:DIODE 9.30477e-05
7 *4165:B1 0.0001653
8 *545:DIODE 0
9 *4150:A 0
10 *541:DIODE 0
11 *4153:B1 2.16901e-05
12 *537:DIODE 0.000250885
13 *4163:B1 0
14 *4161:B1 0
15 *543:DIODE 0
16 *4338:A 0.000133922
17 *561:DIODE 0
18 *4285:B1 0
19 *4146:A 0
20 *533:DIODE 0
21 *528:DIODE 0.000146463
22 *4139:C1 2.34823e-05
23 *560:DIODE 0
24 *534:DIODE 0
25 *524:DIODE 0
26 *547:DIODE 0
27 *4167:B1 2.34823e-05
28 *4282:A 0
29 *557:DIODE 0
30 *558:DIODE 0
31 *4283:A 0.000111323
32 *4100:Y 0
33 *100:374 0.000568202
34 *100:338 0.000573918
35 *100:328 0.000707851
36 *100:317 0.000363225
37 *100:315 0.000223359
38 *100:313 0.000769715
39 *100:295 0.000212329
40 *100:291 0.000343337
41 *100:263 0.00059362
42 *100:255 0.000691
43 *100:245 0.000497074
44 *100:234 0.000633344
45 *100:217 0.000633344
46 *100:215 0.000256217
47 *100:206 0.000740897
48 *100:193 0.000807634
49 *100:189 0.00105954
50 *100:174 0.00115819
51 *100:135 0.000608969
52 *100:127 0.000716559
53 *100:123 0.000505291
54 *100:117 0.000302928
55 *100:115 0.000542167
56 *100:106 0.0016212
57 *100:90 0.00158876
58 *100:79 0.000750793
59 *100:66 0.00049482
60 *100:59 1.80182e-05
61 *100:57 0.000246367
62 *100:24 0.000336318
63 *100:22 0.000335572
64 *100:20 0.000836289
65 *100:8 0.000905877
66 *100:4 0.000308253
67 *528:DIODE *4139:A2 1.46586e-05
68 *528:DIODE *4297:B 1.59094e-05
69 *528:DIODE *367:64 3.01354e-05
70 *528:DIODE *422:18 0.000296509
71 *531:DIODE *259:160 0.000141954
72 *537:DIODE *4158:A1 0.000114721
73 *537:DIODE *4561:A 0.000137651
74 *537:DIODE *133:159 4.78593e-05
75 *537:DIODE *491:6 5.56356e-05
76 *4144:A *4144:B 5.67058e-05
77 *4153:B1 *133:159 3.23857e-06
78 *4165:B1 *133:23 9.84851e-05
79 *4165:B1 *133:38 0.000118943
80 *4211:B *4133:B 6.07611e-06
81 *4211:B *133:10 2.35393e-05
82 *4211:B *259:160 0
83 *4211:B *465:8 6.93553e-05
84 *4338:A *4338:B 2.02872e-05
85 *4338:A *4338:C 0.00017761
86 *100:8 *252:33 0.000205566
87 *100:8 *252:37 2.02517e-05
88 *100:20 *4282:B 9.75779e-05
89 *100:20 *152:8 5.50106e-05
90 *100:20 *252:12 0
91 *100:20 *252:33 7.88926e-05
92 *100:20 *475:8 1.01436e-05
93 *100:57 *252:45 0
94 *100:57 *373:155 0.000218023
95 *100:66 *4206:A 2.93845e-05
96 *100:66 *373:155 5.50106e-05
97 *100:79 *4206:A 0.000654978
98 *100:79 *4284:A1 7.88828e-05
99 *100:79 *142:69 0.00037627
100 *100:79 *307:23 0
101 *100:79 *373:132 1.22803e-05
102 *100:79 *373:145 0.000652065
103 *100:79 *373:155 0.000143655
104 *100:90 *4189:C1 2.64616e-05
105 *100:90 *130:16 4.21594e-06
106 *100:90 *143:103 3.0647e-05
107 *100:90 *264:117 0
108 *100:90 *307:23 2.79543e-05
109 *100:90 *373:70 6.25829e-05
110 *100:90 *373:72 0.000136486
111 *100:90 *373:74 5.01986e-05
112 *100:106 *4101:A 1.24376e-05
113 *100:106 *4341:D 8.17019e-05
114 *100:106 *4603:A 3.16784e-05
115 *100:106 *130:16 1.02387e-05
116 *100:106 *144:10 0.000141879
117 *100:106 *335:10 6.41361e-05
118 *100:106 *373:74 0.000171906
119 *100:115 *4101:A 2.02872e-05
120 *100:115 *101:10 0.000310641
121 *100:115 *335:10 2.81406e-06
122 *100:117 *360:75 0.000124102
123 *100:117 *514:20 6.33511e-05
124 *100:123 *4126:B 5.76819e-05
125 *100:123 *4285:A2 0
126 *100:123 *102:10 7.24933e-05
127 *100:123 *224:10 0
128 *100:123 *360:75 1.14452e-05
129 *100:123 *429:14 8.62876e-05
130 *100:123 *514:20 6.07611e-06
131 *100:127 *4132:A3 0
132 *100:127 *4285:A2 0
133 *100:127 *224:10 0
134 *100:127 *228:8 0
135 *100:127 *265:12 0
136 *100:127 *362:70 2.50227e-05
137 *100:127 *367:14 0
138 *100:127 *423:8 3.21223e-05
139 *100:135 *4125:C 0.000404441
140 *100:135 *4125:D_N 0.000143543
141 *100:135 *4297:B 1.21972e-05
142 *100:135 *372:21 0.000175403
143 *100:135 *422:18 0.000471357
144 *100:174 *4102:A 9.67842e-05
145 *100:174 *360:75 0.0002644
146 *100:174 *514:20 0.00013118
147 *100:189 *4102:A 5.50106e-05
148 *100:189 *4337:A2 0.00036453
149 *100:189 *4338:B 7.59794e-05
150 *100:189 *102:10 1.14452e-05
151 *100:189 *258:8 0.000404246
152 *100:189 *259:53 5.94125e-05
153 *100:189 *351:22 7.71739e-05
154 *100:189 *514:20 1.7992e-05
155 *100:193 *4338:B 1.97329e-05
156 *100:193 *265:93 0.000111279
157 *100:193 *495:33 0
158 *100:206 *4352:CLK 0.000237525
159 *100:206 *133:114 0.000154411
160 *100:206 *134:115 0.00016733
161 *100:206 *156:10 0
162 *100:206 *265:93 0.000161888
163 *100:206 *267:80 3.3123e-05
164 *100:206 *339:16 3.51105e-05
165 *100:206 *349:10 0.000167443
166 *100:206 *495:12 0
167 *100:206 *495:33 0
168 *100:206 *498:8 0
169 *100:215 *133:114 3.28904e-05
170 *100:215 *133:134 1.27035e-05
171 *100:215 *133:147 1.14452e-05
172 *100:215 *267:80 8.90232e-05
173 *100:234 *133:108 0.000197244
174 *100:234 *150:10 5.40241e-05
175 *100:234 *259:64 0
176 *100:234 *267:65 0.000264807
177 *100:234 *330:10 3.18142e-05
178 *100:234 *478:26 9.94414e-05
179 *100:234 *506:10 0.000229801
180 *100:234 *507:10 3.46673e-05
181 *100:245 *133:147 0.000182873
182 *100:245 *267:80 9.63918e-05
183 *100:255 *4530:A 0.000126343
184 *100:255 *267:6 0.000137651
185 *100:255 *267:159 4.5051e-05
186 *100:255 *305:44 3.83059e-05
187 *100:255 *362:238 0.000155849
188 *100:255 *495:12 0.000114159
189 *100:255 *500:10 0.000194309
190 *100:263 *4158:A1 2.93335e-05
191 *100:263 *145:8 0.000138719
192 *100:263 *267:59 0
193 *100:263 *267:101 0
194 *100:263 *495:12 0.000128739
195 *100:291 *4206:B 4.85126e-05
196 *100:291 *176:10 3.83778e-05
197 *100:291 *373:155 2.55642e-05
198 *100:295 *133:38 1.40958e-05
199 *100:313 *4206:B 0.000209092
200 *100:313 *176:10 0.00021621
201 *100:317 *259:160 0.000308952
202 *100:328 *133:10 2.71291e-05
203 *100:328 *151:12 0
204 *100:328 *451:8 0
205 *100:338 *4124:A1 1.14762e-05
206 *100:338 *4144:B 3.06338e-05
207 *100:338 *4536:A 0.000462695
208 *100:338 *259:160 0.000314157
209 *100:338 *287:14 1.06533e-05
210 *100:338 *290:37 1.22822e-05
211 *100:374 *4206:B 1.78655e-05
212 *100:374 *176:10 4.08641e-05
213 *100:374 *307:34 0.000143655
214 *100:374 *373:173 0
215 *100:374 *455:14 7.88828e-05
216 *100:374 *460:109 8.9458e-05
217 *100:374 *460:126 2.26778e-05
218 *100:374 *486:14 0
219 *4153:A1 *537:DIODE 0.0001844
220 *4522:A *100:338 3.22879e-05
221 *4546:A *100:20 4.2062e-05
222 *4563:A *100:245 5.3304e-05
223 *4563:A *100:255 5.3304e-05
224 *20:10 *528:DIODE 1.73399e-05
225 *34:8 *100:255 4.5051e-05
226 *74:10 *100:20 0.000173192
227 *74:10 *100:22 2.7237e-05
228 *75:10 *4283:A 1.73399e-05
229 *76:8 *100:79 0.000326053
230 *95:6 *4338:A 0.000261951
231 *95:6 *100:189 1.23374e-05
232 *97:22 *4211:B 0.000168754
233 *97:22 *100:374 0.0002246
*RES
1 *4100:Y *100:4 23 
2 *100:4 *100:8 4.45357 
3 *100:8 *100:20 42.0764 
4 *100:20 *100:22 2.05071 
5 *100:22 *100:24 3.95643 
6 *100:24 *4283:A 25.0507 
7 *100:24 *558:DIODE 23 
8 *100:22 *557:DIODE 23 
9 *100:20 *4282:A 23 
10 *100:8 *4167:B1 23.4971 
11 *100:4 *100:57 17.9621 
12 *100:57 *100:59 15 
13 *100:59 *547:DIODE 23 
14 *100:59 *100:66 0.621429 
15 *100:66 *524:DIODE 23 
16 *100:66 *100:79 49.865 
17 *100:79 *534:DIODE 23 
18 *100:79 *100:90 19.8886 
19 *100:90 *100:106 36.5636 
20 *100:106 *560:DIODE 23 
21 *100:106 *100:115 19.4329 
22 *100:115 *100:117 1.90571 
23 *100:117 *100:123 4.55714 
24 *100:123 *100:127 19.7229 
25 *100:127 *100:135 11.9936 
26 *100:135 *4139:C1 23.4971 
27 *100:135 *528:DIODE 26.9564 
28 *100:127 *533:DIODE 23 
29 *100:123 *4146:A 38 
30 *100:117 *4285:B1 38 
31 *100:115 *100:174 19.7643 
32 *100:174 *561:DIODE 23 
33 *100:174 *100:189 44.9557 
34 *100:189 *100:193 16.5536 
35 *100:193 *4338:A 41.5007 
36 *100:193 *100:206 14.2307 
37 *100:206 *543:DIODE 38 
38 *100:206 *100:215 2.61 
39 *100:215 *100:217 15 
40 *100:217 *4161:B1 23 
41 *100:217 *100:234 43.9821 
42 *100:234 *4163:B1 23 
43 *100:215 *100:245 18.2314 
44 *100:245 *100:255 39.5286 
45 *100:255 *100:263 36.4007 
46 *100:263 *537:DIODE 28.8621 
47 *100:263 *4153:B1 23.4971 
48 *100:245 *541:DIODE 23 
49 *100:90 *4150:A 38 
50 *100:57 *100:291 1.90571 
51 *100:291 *100:295 15.6214 
52 *100:295 *545:DIODE 23 
53 *100:295 *4165:B1 26.8736 
54 *100:291 *100:313 5.77929 
55 *100:313 *100:315 15 
56 *100:315 *100:317 3.48 
57 *100:317 *531:DIODE 24.5743 
58 *100:317 *100:328 15.8493 
59 *100:328 *100:338 26.8693 
60 *100:338 *4144:A 23.6214 
61 *100:338 *4124:C1 23 
62 *100:328 *4211:B 40.9621 
63 *100:315 *525:DIODE 23 
64 *100:313 *100:374 39.4457 
65 *100:374 *555:DIODE 38 
*END

*D_NET *101 0.00215343
*CONN
*I *4337:C1 I *D sky130_fd_sc_hd__o221a_1
*I *4101:Y O *D sky130_fd_sc_hd__inv_2
*CAP
1 *4337:C1 2.95294e-05
2 *4101:Y 0.000540797
3 *101:10 0.000570326
4 *4337:C1 *4337:B1 5.50049e-05
5 *101:10 *4425:A 9.41704e-05
6 *101:10 *226:57 0.000171618
7 *101:10 *259:53 7.73823e-06
8 *101:10 *335:10 8.07994e-05
9 *101:10 *399:8 0.000137368
10 *95:14 *101:10 0.00015544
11 *100:115 *101:10 0.000310641
*RES
1 *4101:Y *101:10 49.4343 
2 *101:10 *4337:C1 38.6214 
*END

*D_NET *102 0.00199039
*CONN
*I *4337:A2 I *D sky130_fd_sc_hd__o221a_1
*I *4146:B I *D sky130_fd_sc_hd__nor3_1
*I *4102:Y O *D sky130_fd_sc_hd__inv_2
*CAP
1 *4337:A2 0.00017975
2 *4146:B 0
3 *4102:Y 0
4 *102:10 0.000299894
5 *102:4 0.000479644
6 *4337:A2 *4337:B1 0.000145462
7 *4337:A2 *351:22 4.344e-05
8 *102:10 *224:10 5.45887e-05
9 *102:10 *259:42 7.8128e-05
10 *102:10 *259:53 6.84517e-05
11 *102:10 *265:10 1.06693e-05
12 *102:10 *265:12 1.7992e-05
13 *102:10 *514:20 0.000163904
14 *100:123 *102:10 7.24933e-05
15 *100:189 *4337:A2 0.00036453
16 *100:189 *102:10 1.14452e-05
*RES
1 *4102:Y *102:4 23 
2 *102:4 *102:10 37.1879 
3 *102:10 *4146:B 23 
4 *102:4 *4337:A2 27.9507 
*END

*D_NET *103 0.00282149
*CONN
*I *4118:A I *D sky130_fd_sc_hd__nor4_1
*I *4108:A I *D sky130_fd_sc_hd__or4_2
*I *4121:A I *D sky130_fd_sc_hd__or4_1
*I *4103:X O *D sky130_fd_sc_hd__or2_1
*CAP
1 *4118:A 0
2 *4108:A 0.00019469
3 *4121:A 0.000220684
4 *4103:X 0.000141523
5 *103:12 0.000444045
6 *103:10 0.000170194
7 *4108:A *4114:C_N 0.000348905
8 *4108:A *4118:B 5.3304e-05
9 *4108:A *117:14 8.47306e-05
10 *4108:A *276:33 5.50049e-05
11 *4108:A *276:39 0.000446983
12 *4121:A *4109:A 0.000133101
13 *4121:A *4114:C_N 0.000138708
14 *4121:A *109:8 0.000110913
15 *4121:A *111:8 0
16 *4121:A *121:10 4.6595e-05
17 *103:10 *109:8 0.000126343
18 *103:10 *113:8 1.94812e-05
19 *103:10 *134:22 0
20 *103:12 *4114:C_N 3.47781e-05
21 *103:12 *109:8 5.15096e-05
22 *103:12 *134:22 0
*RES
1 *4103:X *103:10 40.5271 
2 *103:10 *103:12 0.849286 
3 *103:12 *4121:A 43.4271 
4 *103:12 *4108:A 45.1879 
5 *103:10 *4118:A 38 
*END

*D_NET *104 0.000237318
*CONN
*I *4108:B I *D sky130_fd_sc_hd__or4_2
*I *4104:X O *D sky130_fd_sc_hd__or4b_1
*CAP
1 *4108:B 6.94194e-05
2 *4104:X 6.94194e-05
3 *4108:B *276:39 9.84794e-05
*RES
1 *4104:X *4108:B 47.0979 
*END

*D_NET *105 0.0031951
*CONN
*I *4251:A I *D sky130_fd_sc_hd__and2_1
*I *4256:C I *D sky130_fd_sc_hd__and4_1
*I *4253:B I *D sky130_fd_sc_hd__and3_1
*I *4105:X O *D sky130_fd_sc_hd__and2_1
*CAP
1 *4251:A 0.000193084
2 *4256:C 3.38089e-05
3 *4253:B 0.000181281
4 *4105:X 0.000118071
5 *105:14 0.000573801
6 *105:8 0.000669866
7 *4251:A *259:133 0.000395889
8 *4253:B *4256:D 4.5051e-05
9 *4253:B *200:37 9.84851e-05
10 *4253:B *205:8 3.62714e-05
11 *4253:B *205:14 9.92529e-07
12 *4253:B *381:27 1.01436e-05
13 *4256:C *4256:B 5.50049e-05
14 *4256:C *4256:D 9.84794e-05
15 *105:8 *205:14 5.94125e-05
16 *105:8 *281:23 5.285e-05
17 *105:8 *282:19 0
18 *105:14 *205:14 0.0002542
19 *105:14 *282:19 0
20 *105:14 *381:14 0
21 *105:14 *381:27 0.000318411
*RES
1 *4105:X *105:8 40.2579 
2 *105:8 *105:14 8.65857 
3 *105:14 *4253:B 41.7493 
4 *105:14 *4256:C 39.0979 
5 *105:8 *4251:A 42.4329 
*END

*D_NET *106 0.000970703
*CONN
*I *4551:A I *D sky130_fd_sc_hd__dlygate4sd3_1
*I *4106:Y O *D sky130_fd_sc_hd__nand4b_1
*CAP
1 *4551:A 0
2 *4106:Y 0.000358711
3 *106:10 0.000358711
4 *106:10 *4114:D_N 0
5 *106:10 *116:10 0
6 *106:10 *279:18 0
7 *106:10 *279:26 3.83778e-05
8 *106:10 *282:43 5.21127e-05
9 *106:10 *283:75 0.00016279
*RES
1 *4106:Y *106:10 44.5354 
2 *106:10 *4551:A 38 
*END

*D_NET *107 0.000985828
*CONN
*I *4108:D I *D sky130_fd_sc_hd__or4_2
*I *4107:X O *D sky130_fd_sc_hd__or4b_1
*CAP
1 *4108:D 0
2 *4107:X 0.000342532
3 *107:10 0.000342532
4 *107:10 *4107:A 0
5 *107:10 *119:8 1.02387e-05
6 *107:10 *120:16 0.000205566
7 *107:10 *276:54 1.69668e-05
8 *107:10 *277:45 4.6318e-06
9 *107:10 *481:10 6.33614e-05
*RES
1 *4107:X *107:10 44.2143 
2 *107:10 *4108:D 38 
*END

*D_NET *108 0.00534655
*CONN
*I *4135:A1 I *D sky130_fd_sc_hd__a211oi_4
*I *4553:A I *D sky130_fd_sc_hd__dlygate4sd3_1
*I *4108:X O *D sky130_fd_sc_hd__or4_2
*CAP
1 *4135:A1 0.0006903
2 *4553:A 3.3043e-05
3 *4108:X 0.000763234
4 *108:12 0.000815853
5 *108:8 0.000855744
6 *4135:A1 *113:8 0.000655987
7 *4135:A1 *290:29 9.58714e-05
8 *4135:A1 *460:6 6.16045e-05
9 *4135:A1 *482:10 0.000569793
10 *108:8 *117:14 0.000652314
11 *108:8 *118:10 0.000152803
12 *108:12 *200:23 0
*RES
1 *4108:X *108:8 49.5793 
2 *108:8 *108:12 16.2014 
3 *108:12 *4553:A 23.8493 
4 *108:12 *4135:A1 40.4829 
*END

*D_NET *109 0.00109982
*CONN
*I *4113:A I *D sky130_fd_sc_hd__or4_2
*I *4109:Y O *D sky130_fd_sc_hd__nand2_1
*CAP
1 *4113:A 8.4624e-05
2 *4109:Y 0.000164152
3 *109:8 0.000248776
4 *4113:A *113:8 1.24376e-05
5 *4113:A *277:35 1.24376e-05
6 *109:8 *111:8 2.26385e-05
7 *109:8 *134:22 0
8 *109:8 *276:33 0.00026599
9 *4121:A *109:8 0.000110913
10 *103:10 *109:8 0.000126343
11 *103:12 *109:8 5.15096e-05
*RES
1 *4109:Y *109:8 42.7229 
2 *109:8 *4113:A 39.0979 
*END

*D_NET *110 0.000158699
*CONN
*I *4113:B I *D sky130_fd_sc_hd__or4_2
*I *4110:X O *D sky130_fd_sc_hd__or4b_1
*CAP
1 *4113:B 0
2 *4110:X 5.76794e-05
3 *110:8 5.76794e-05
4 *110:8 *277:18 4.334e-05
*RES
1 *4110:X *110:8 39.2014 
2 *110:8 *4113:B 38 
*END

*D_NET *111 0.0012475
*CONN
*I *4113:C I *D sky130_fd_sc_hd__or4_2
*I *4111:X O *D sky130_fd_sc_hd__or4b_1
*CAP
1 *4113:C 0
2 *4111:X 0.000382937
3 *111:8 0.000382937
4 *111:8 *4109:A 8.85189e-05
5 *111:8 *4114:A 0.000193379
6 *111:8 *4114:C_N 0
7 *111:8 *4114:D_N 0.000142305
8 *111:8 *119:8 0
9 *111:8 *276:33 3.47879e-05
10 *111:8 *480:32 0
11 *4121:A *111:8 0
12 *109:8 *111:8 2.26385e-05
*RES
1 *4111:X *111:8 45.54 
2 *111:8 *4113:C 38 
*END

*D_NET *112 0.00190269
*CONN
*I *4113:D I *D sky130_fd_sc_hd__or4_2
*I *4112:X O *D sky130_fd_sc_hd__or4b_1
*CAP
1 *4113:D 0.000441544
2 *4112:X 3.93988e-05
3 *112:8 0.000480943
4 *4113:D *4119:B 2.25809e-05
5 *4113:D *4119:C_N 0.000269775
6 *4113:D *117:10 5.3304e-05
7 *4113:D *277:35 0.000222786
8 *4113:D *277:45 0.00014196
9 *112:8 *4117:B 0.000114083
10 *112:8 *274:20 0.000116314
*RES
1 *4112:X *112:8 39.5536 
2 *112:8 *4113:D 47.6736 
*END

*D_NET *113 0.00318232
*CONN
*I *4135:A2 I *D sky130_fd_sc_hd__a211oi_4
*I *4113:X O *D sky130_fd_sc_hd__or4_2
*CAP
1 *4135:A2 0
2 *4113:X 0.000663545
3 *113:8 0.000663545
4 *113:8 *4103:B 0.000137651
5 *113:8 *134:14 0.000858546
6 *113:8 *277:35 2.02517e-05
7 *113:8 *290:29 9.41704e-05
8 *113:8 *460:6 5.67058e-05
9 *4113:A *113:8 1.24376e-05
10 *4135:A1 *113:8 0.000655987
11 *103:10 *113:8 1.94812e-05
*RES
1 *4113:X *113:8 44.605 
2 *113:8 *4135:A2 23 
*END

*D_NET *114 0.000256809
*CONN
*I *4118:B I *D sky130_fd_sc_hd__nor4_1
*I *4114:X O *D sky130_fd_sc_hd__or4bb_1
*CAP
1 *4118:B 9.16087e-05
2 *4114:X 9.16087e-05
3 *4118:B *4114:C_N 2.02872e-05
4 *4108:A *4118:B 5.3304e-05
*RES
1 *4114:X *4118:B 47.0979 
*END

*D_NET *115 0.00203238
*CONN
*I *4118:C I *D sky130_fd_sc_hd__nor4_1
*I *4115:X O *D sky130_fd_sc_hd__or4b_1
*CAP
1 *4118:C 0
2 *4115:X 0.000505996
3 *115:10 0.000505996
4 *115:10 *4114:C_N 0.000182921
5 *115:10 *134:22 0.000112019
6 *115:10 *283:90 0.000563761
7 *115:10 *480:32 0.000161685
*RES
1 *4115:X *115:10 49.2686 
2 *115:10 *4118:C 38 
*END

*D_NET *116 0.000780248
*CONN
*I *4121:B I *D sky130_fd_sc_hd__or4_1
*I *4116:X O *D sky130_fd_sc_hd__or4bb_1
*CAP
1 *4121:B 0
2 *4116:X 0.000299023
3 *116:10 0.000299023
4 *116:10 *4111:B 4.39278e-05
5 *116:10 *4114:D_N 0.000107641
6 *116:10 *119:8 0
7 *116:10 *282:43 3.06338e-05
8 *106:10 *116:10 0
*RES
1 *4116:X *116:10 43.4893 
2 *116:10 *4121:B 38 
*END

*D_NET *117 0.00269795
*CONN
*I *4118:D I *D sky130_fd_sc_hd__nor4_1
*I *4117:X O *D sky130_fd_sc_hd__or4bb_1
*CAP
1 *4118:D 0
2 *4117:X 0.000122588
3 *117:14 0.000548164
4 *117:10 0.000670752
5 *117:10 *4117:B 0.000114074
6 *117:10 *276:54 0
7 *117:14 *4104:C 5.70419e-05
8 *117:14 *4114:C_N 0.000175718
9 *117:14 *4114:D_N 5.50049e-05
10 *117:14 *118:10 5.37348e-06
11 *117:14 *276:39 6.30189e-05
12 *117:14 *277:45 9.58714e-05
13 *4108:A *117:14 8.47306e-05
14 *4113:D *117:10 5.3304e-05
15 *108:8 *117:14 0.000652314
*RES
1 *4117:X *117:10 40.175 
2 *117:10 *117:14 28.485 
3 *117:14 *4118:D 23 
*END

*D_NET *118 0.00159393
*CONN
*I *4240:B I *D sky130_fd_sc_hd__or2_1
*I *4122:A2 I *D sky130_fd_sc_hd__a21bo_2
*I *4118:Y O *D sky130_fd_sc_hd__nor4_1
*CAP
1 *4240:B 0.000267822
2 *4122:A2 0
3 *4118:Y 0.000353311
4 *118:10 0.000621133
5 *4240:B *4122:A1 2.32004e-05
6 *4240:B *4122:B1_N 0.000111944
7 *4240:B *122:8 5.83407e-05
8 *108:8 *118:10 0.000152803
9 *117:14 *118:10 5.37348e-06
*RES
1 *4118:Y *118:10 30.3329 
2 *118:10 *4122:A2 23 
3 *118:10 *4240:B 28.4064 
*END

*D_NET *119 0.0012681
*CONN
*I *4121:C I *D sky130_fd_sc_hd__or4_1
*I *4119:X O *D sky130_fd_sc_hd__or4bb_1
*CAP
1 *4121:C 8.82075e-05
2 *4119:X 0.000305088
3 *119:8 0.000393295
4 *4121:C *120:16 0.000228903
5 *4121:C *481:10 0.000103647
6 *119:8 *4114:D_N 0
7 *119:8 *277:45 0
8 *119:8 *481:10 0.000138718
9 *107:10 *119:8 1.02387e-05
10 *111:8 *119:8 0
11 *116:10 *119:8 0
*RES
1 *4119:X *119:8 42.7229 
2 *119:8 *4121:C 41.0036 
*END

*D_NET *120 0.00212622
*CONN
*I *4121:D I *D sky130_fd_sc_hd__or4_1
*I *4120:X O *D sky130_fd_sc_hd__or4b_1
*CAP
1 *4121:D 0
2 *4120:X 7.03609e-05
3 *120:16 0.000494996
4 *120:8 0.000565357
5 *120:8 *4107:D_N 6.57345e-05
6 *120:8 *140:100 0
7 *120:8 *284:65 4.334e-05
8 *120:8 *285:38 1.01436e-05
9 *120:16 *4107:A 5.50049e-05
10 *120:16 *4107:D_N 0.000143655
11 *120:16 *283:58 5.78923e-05
12 *120:16 *283:75 4.36915e-05
13 *120:16 *284:49 6.68822e-05
14 *120:16 *284:65 5.70419e-05
15 *120:16 *481:10 1.76557e-05
16 *4121:C *120:16 0.000228903
17 *107:10 *120:16 0.000205566
*RES
1 *4120:X *120:8 39.9057 
2 *120:8 *120:16 28.1743 
3 *120:16 *4121:D 23 
*END

*D_NET *121 0.00249797
*CONN
*I *4122:B1_N I *D sky130_fd_sc_hd__a21bo_2
*I *4121:X O *D sky130_fd_sc_hd__or4_1
*CAP
1 *4122:B1_N 0.000261735
2 *4121:X 0.000578299
3 *121:10 0.000840033
4 *4122:B1_N *4122:A1 8.80821e-05
5 *4122:B1_N *140:38 0
6 *4122:B1_N *140:51 0
7 *4122:B1_N *510:14 9.48381e-06
8 *121:10 *4109:A 8.24662e-05
9 *121:10 *4248:A2 3.46673e-05
10 *121:10 *202:10 5.50106e-05
11 *121:10 *279:66 0.00029117
12 *121:10 *510:6 9.84851e-05
13 *4121:A *121:10 4.6595e-05
14 *4240:B *4122:B1_N 0.000111944
*RES
1 *4121:X *121:10 49.1236 
2 *121:10 *4122:B1_N 42.9404 
*END

*D_NET *122 0.0127814
*CONN
*I *4232:D I *D sky130_fd_sc_hd__and4_1
*I *4231:A3 I *D sky130_fd_sc_hd__a31o_1
*I *4209:B I *D sky130_fd_sc_hd__nand2_2
*I *4208:B I *D sky130_fd_sc_hd__and2_2
*I *4123:B I *D sky130_fd_sc_hd__nand2_1
*I *4143:A3 I *D sky130_fd_sc_hd__a31o_1
*I *4124:B1 I *D sky130_fd_sc_hd__a221o_1
*I *4144:B I *D sky130_fd_sc_hd__nor2_4
*I *4122:X O *D sky130_fd_sc_hd__a21bo_2
*CAP
1 *4232:D 5.67007e-05
2 *4231:A3 0.000841955
3 *4209:B 2.14194e-05
4 *4208:B 0
5 *4123:B 2.34823e-05
6 *4143:A3 0
7 *4124:B1 0
8 *4144:B 0.000268306
9 *4122:X 0.000352062
10 *122:80 0.00129848
11 *122:67 0.000594777
12 *122:60 0.000210043
13 *122:54 0.000619698
14 *122:45 0.000611054
15 *122:38 0.000295025
16 *122:32 0.00125613
17 *122:12 0.000441791
18 *122:8 0.0011352
19 *4144:B *140:8 2.93747e-05
20 *4144:B *290:37 2.85422e-05
21 *4209:B *488:121 5.90675e-06
22 *4231:A3 *4230:A 0.000226306
23 *4231:A3 *4230:C 2.42445e-05
24 *4231:A3 *4233:B 2.80924e-06
25 *4231:A3 *4233:C 7.05498e-05
26 *4231:A3 *4374:CLK 1.06779e-05
27 *4231:A3 *488:47 1.94693e-05
28 *4231:A3 *488:56 3.91386e-05
29 *4232:D *268:23 0
30 *4232:D *488:134 7.6144e-05
31 *122:8 *4240:A 2.88036e-05
32 *122:8 *4241:A1 2.64616e-05
33 *122:8 *4241:A2 1.40958e-05
34 *122:8 *4241:B1 0.000141052
35 *122:12 *290:37 0.000349395
36 *122:12 *450:21 0
37 *122:12 *483:8 6.53445e-05
38 *122:32 *134:10 6.60662e-05
39 *122:32 *151:12 0
40 *122:32 *259:164 0.00014196
41 *122:32 *263:8 9.84851e-05
42 *122:32 *263:10 2.96154e-05
43 *122:32 *263:12 9.63815e-05
44 *122:32 *263:14 0.000118899
45 *122:32 *263:18 9.70251e-05
46 *122:32 *290:37 0.000231221
47 *122:32 *356:12 0
48 *122:32 *450:21 0
49 *122:38 *263:10 0
50 *122:38 *263:63 0
51 *122:38 *263:65 0
52 *122:38 *356:12 1.83667e-05
53 *122:38 *356:65 6.07929e-05
54 *122:38 *356:78 9.59831e-05
55 *122:38 *432:31 1.86973e-05
56 *122:45 *4123:A 5.3304e-05
57 *122:45 *259:164 0.00029741
58 *122:45 *290:16 0.000101639
59 *122:45 *356:8 0.00014196
60 *122:54 *290:16 7.55599e-05
61 *122:54 *488:8 0.000100733
62 *122:60 *4227:C 0
63 *122:60 *4559:A 3.70094e-05
64 *122:60 *178:10 0
65 *122:60 *180:46 0
66 *122:60 *488:12 0
67 *122:60 *488:47 0
68 *122:67 *488:8 0.00014698
69 *122:67 *488:121 5.70419e-05
70 *122:80 *4213:B 0.000137651
71 *122:80 *4463:A 0
72 *122:80 *178:69 6.17437e-06
73 *122:80 *266:79 0.000312088
74 *122:80 *290:16 1.03836e-05
75 *122:80 *488:121 4.19743e-05
76 *122:80 *488:134 0.000761164
77 *4144:A *4144:B 5.67058e-05
78 *4240:B *122:8 5.83407e-05
79 *4374:D *4231:A3 9.67116e-05
80 *100:338 *4144:B 3.06338e-05
*RES
1 *4122:X *122:8 44.3386 
2 *122:8 *122:12 19.7229 
3 *122:12 *4144:B 27.93 
4 *122:12 *4124:B1 23 
5 *122:8 *122:32 29.0443 
6 *122:32 *122:38 35.075 
7 *122:38 *4143:A3 23 
8 *122:32 *122:45 7.29143 
9 *122:45 *4123:B 23.4971 
10 *122:45 *122:54 4.43286 
11 *122:54 *122:60 33.6664 
12 *122:60 *4208:B 23 
13 *122:54 *122:67 3.95643 
14 *122:67 *4209:B 23.4971 
15 *122:67 *122:80 26.0407 
16 *122:80 *4231:A3 49.9521 
17 *122:80 *4232:D 39.2014 
*END

*D_NET *123 0.00169169
*CONN
*I *4136:C I *D sky130_fd_sc_hd__or4_4
*I *4123:Y O *D sky130_fd_sc_hd__nand2_1
*CAP
1 *4136:C 0.000203568
2 *4123:Y 0.000227753
3 *123:8 0.00043132
4 *4136:C *526:DIODE 5.50106e-05
5 *4136:C *4134:B 0.000115001
6 *4136:C *4136:A 0.000201048
7 *4136:C *134:64 3.93271e-05
8 *123:8 *4227:C 0
9 *123:8 *180:19 0
10 *4227:A *123:8 0.000224345
11 *97:12 *123:8 0.000194318
*RES
1 *4123:Y *123:8 43.4271 
2 *123:8 *4136:C 42.1946 
*END

*D_NET *124 0.000552916
*CONN
*I *4507:A I *D sky130_fd_sc_hd__dlygate4sd3_1
*I *4125:X O *D sky130_fd_sc_hd__or4b_1
*CAP
1 *4507:A 3.93039e-05
2 *4125:X 9.50286e-05
3 *124:8 0.000134332
4 *4507:A *226:57 4.9662e-05
5 *4507:A *367:14 9.58714e-05
6 *124:8 *225:10 0
7 *124:8 *265:12 0.000138718
8 *124:8 *310:22 0
*RES
1 *4125:X *124:8 39.9057 
2 *124:8 *4507:A 39.0979 
*END

*D_NET *125 0.000218867
*CONN
*I *4132:B1 I *D sky130_fd_sc_hd__a31o_1
*I *4126:X O *D sky130_fd_sc_hd__and3_1
*CAP
1 *4132:B1 7.22433e-05
2 *4126:X 7.22433e-05
3 *4132:B1 *4132:A1 5.41288e-05
4 *4132:B1 *4132:A2 2.02517e-05
5 *4132:B1 *4146:C 0
*RES
1 *4126:X *4132:B1 47.595 
*END

*D_NET *126 0.000257489
*CONN
*I *4131:A I *D sky130_fd_sc_hd__nor4_4
*I *4127:X O *D sky130_fd_sc_hd__or4b_1
*CAP
1 *4131:A 0
2 *4127:X 0.00011032
3 *126:8 0.00011032
4 *126:8 *4305:B 0
5 *126:8 *144:24 1.14452e-05
6 *126:8 *238:10 2.54046e-05
*RES
1 *4127:X *126:8 39.9057 
2 *126:8 *4131:A 38 
*END

*D_NET *127 0.00161881
*CONN
*I *4131:B I *D sky130_fd_sc_hd__nor4_4
*I *4128:Y O *D sky130_fd_sc_hd__nand2_1
*CAP
1 *4131:B 0
2 *4128:Y 0.000430795
3 *127:8 0.000430795
4 *127:8 *128:10 0.000717336
5 *127:8 *130:10 3.98818e-05
*RES
1 *4128:Y *127:8 33.0464 
2 *127:8 *4131:B 23 
*END

*D_NET *128 0.00246586
*CONN
*I *4131:C I *D sky130_fd_sc_hd__nor4_4
*I *4129:X O *D sky130_fd_sc_hd__or4_1
*CAP
1 *4131:C 0
2 *4129:X 0.000548629
3 *128:10 0.000548629
4 *128:10 *4128:A 0.000267173
5 *128:10 *4129:A 0.000228903
6 *128:10 *130:10 3.52383e-05
7 *128:10 *407:26 0.000119957
8 *127:8 *128:10 0.000717336
*RES
1 *4129:X *128:10 38.4321 
2 *128:10 *4131:C 23 
*END

*D_NET *129 0.00110101
*CONN
*I *4131:D I *D sky130_fd_sc_hd__nor4_4
*I *4130:X O *D sky130_fd_sc_hd__or4bb_1
*CAP
1 *4131:D 0
2 *4130:X 0.000365915
3 *129:10 0.000365915
4 *129:10 *4335:B1 9.84851e-05
5 *129:10 *241:10 0.000221184
6 *129:10 *350:14 4.95081e-05
*RES
1 *4130:X *129:10 45.1257 
2 *129:10 *4131:D 38 
*END

*D_NET *130 0.0110798
*CONN
*I *4132:A3 I *D sky130_fd_sc_hd__a31o_1
*I *4289:B I *D sky130_fd_sc_hd__and3_1
*I *4288:A1 I *D sky130_fd_sc_hd__a21o_1
*I *4169:B I *D sky130_fd_sc_hd__nand2_2
*I *4191:A2 I *D sky130_fd_sc_hd__a31o_1
*I *4150:B I *D sky130_fd_sc_hd__nor2_4
*I *4131:Y O *D sky130_fd_sc_hd__nor4_4
*CAP
1 *4132:A3 0.000253577
2 *4289:B 0
3 *4288:A1 0
4 *4169:B 0
5 *4191:A2 5.09839e-05
6 *4150:B 0
7 *4131:Y 0.000696875
8 *130:68 0.000717623
9 *130:55 0.00125224
10 *130:44 0.000205225
11 *130:29 0.000834665
12 *130:16 0.000997686
13 *130:10 0.0019043
14 *4132:A3 *4132:A1 5.50049e-05
15 *4132:A3 *4132:A2 2.30292e-05
16 *4132:A3 *4285:A2 4.85126e-05
17 *4132:A3 *4300:B 0
18 *4132:A3 *228:8 6.07611e-06
19 *4132:A3 *367:14 4.43614e-05
20 *4132:A3 *413:19 5.55278e-05
21 *4191:A2 *166:8 0.000139346
22 *4191:A2 *167:8 2.18409e-05
23 *4191:A2 *360:20 5.67058e-05
24 *130:10 *238:10 0.000226306
25 *130:16 *144:10 0.000319219
26 *130:16 *144:18 0.000233442
27 *130:16 *264:10 0.000341483
28 *130:16 *264:12 0.000241616
29 *130:16 *264:14 3.70187e-05
30 *130:16 *264:82 0.000108951
31 *130:16 *264:102 0.000184165
32 *130:16 *264:117 0.000210659
33 *130:29 *549:DIODE 0.000123934
34 *130:29 *4149:A 2.70366e-05
35 *130:29 *4169:A 3.70094e-05
36 *130:29 *335:18 8.16356e-05
37 *130:29 *360:10 0.000168102
38 *130:29 *360:20 0
39 *130:44 *4188:A1 7.44354e-05
40 *130:44 *4188:B2 0.000107641
41 *130:44 *133:55 0.000222113
42 *130:44 *166:8 9.67842e-05
43 *130:55 *313:10 6.71408e-06
44 *130:68 *4125:C 2.02872e-05
45 *130:68 *4288:B1 9.90162e-05
46 *130:68 *228:8 9.64022e-05
47 *130:68 *413:19 7.03869e-05
48 *4404:D *130:55 9.81682e-05
49 *4499:A *130:68 0.000359326
50 *77:8 *130:68 3.47781e-05
51 *100:90 *130:16 4.21594e-06
52 *100:106 *130:16 1.02387e-05
53 *100:127 *4132:A3 0
54 *127:8 *130:10 3.98818e-05
55 *128:10 *130:10 3.52383e-05
*RES
1 *4131:Y *130:10 34.2686 
2 *130:10 *130:16 44.935 
3 *130:16 *4150:B 23 
4 *130:16 *130:29 42.1593 
5 *130:29 *4191:A2 24.5743 
6 *130:29 *130:44 35.4893 
7 *130:44 *4169:B 23 
8 *130:10 *130:55 10.7921 
9 *130:55 *4288:A1 23 
10 *130:55 *130:68 25.3986 
11 *130:68 *4289:B 38 
12 *130:68 *4132:A3 43.3857 
*END

*D_NET *131 0.00314794
*CONN
*I *4134:C I *D sky130_fd_sc_hd__or3_1
*I *4136:D I *D sky130_fd_sc_hd__or4_4
*I *4145:A2 I *D sky130_fd_sc_hd__a22o_1
*I *4133:X O *D sky130_fd_sc_hd__and2b_1
*CAP
1 *4134:C 0
2 *4136:D 0
3 *4145:A2 0.000205863
4 *4133:X 0.00036161
5 *131:14 0.000226419
6 *131:12 2.05553e-05
7 *131:10 0.00036161
8 *4145:A2 *4136:A 0.00018282
9 *4145:A2 *4145:A1 5.3304e-05
10 *4145:A2 *4380:CLK 0.000180218
11 *4145:A2 *356:18 0.000159907
12 *4145:A2 *356:49 2.18506e-05
13 *4145:A2 *373:257 0.000633889
14 *131:10 *4240:A 0.000230604
15 *131:10 *132:8 0
16 *131:10 *259:160 0.000367698
17 *131:10 *460:12 4.27916e-05
18 *131:10 *488:20 4.6318e-06
19 *131:14 *4136:A 4.08664e-05
20 *131:14 *373:257 5.3304e-05
21 *97:12 *131:10 0
22 *97:22 *131:10 0
*RES
1 *4133:X *131:10 45.6021 
2 *131:10 *131:12 15 
3 *131:12 *131:14 0.621429 
4 *131:14 *4145:A2 30.7679 
5 *131:14 *4136:D 23 
6 *131:12 *4134:C 23 
*END

*D_NET *132 0.000377449
*CONN
*I *4135:B1 I *D sky130_fd_sc_hd__a211oi_4
*I *4134:X O *D sky130_fd_sc_hd__or3_1
*CAP
1 *4135:B1 0
2 *4134:X 7.39859e-05
3 *132:8 7.39859e-05
4 *132:8 *460:12 8.85189e-05
5 *97:12 *132:8 0.000140958
6 *131:10 *132:8 0
*RES
1 *4134:X *132:8 39.9057 
2 *132:8 *4135:B1 15 
*END

*D_NET *133 0.0273327
*CONN
*I *4157:B I *D sky130_fd_sc_hd__or2_1
*I *4154:A2 I *D sky130_fd_sc_hd__o21ba_1
*I *4153:A2 I *D sky130_fd_sc_hd__a21o_1
*I *4161:A2 I *D sky130_fd_sc_hd__a21o_1
*I *4159:B I *D sky130_fd_sc_hd__or2_1
*I *4155:B I *D sky130_fd_sc_hd__or2_1
*I *4163:A2 I *D sky130_fd_sc_hd__a21o_1
*I *4188:A2 I *D sky130_fd_sc_hd__a22o_1
*I *4148:B I *D sky130_fd_sc_hd__and2_2
*I *4149:B I *D sky130_fd_sc_hd__nand2_2
*I *4165:A2 I *D sky130_fd_sc_hd__a21o_1
*I *4167:A2 I *D sky130_fd_sc_hd__a21o_1
*I *4135:Y O *D sky130_fd_sc_hd__a211oi_4
*CAP
1 *4157:B 7.13428e-05
2 *4154:A2 2.34823e-05
3 *4153:A2 0
4 *4161:A2 0
5 *4159:B 0
6 *4155:B 0
7 *4163:A2 0
8 *4188:A2 0
9 *4148:B 0.000238921
10 *4149:B 2.0995e-05
11 *4165:A2 0
12 *4167:A2 0.000325647
13 *4135:Y 0.000110298
14 *133:166 0.000329192
15 *133:159 0.000569055
16 *133:147 0.00131871
17 *133:134 0.000552751
18 *133:122 0.000429813
19 *133:114 0.00124632
20 *133:108 0.00144356
21 *133:93 0.00179528
22 *133:55 0.000365882
23 *133:51 0.0013933
24 *133:42 0.00040788
25 *133:38 0.00176611
26 *133:23 0.00147285
27 *133:10 0.000912284
28 *133:8 0.000663964
29 *4148:B *4148:A 5.50106e-05
30 *4148:B *4149:A 1.83667e-05
31 *4148:B *4188:B2 4.21594e-06
32 *4148:B *146:20 0
33 *4148:B *335:18 0.000382721
34 *4148:B *360:10 0.000315857
35 *4148:B *360:62 0.000136143
36 *4148:B *456:12 0
37 *4149:B *4149:A 1.14154e-05
38 *4154:A2 *147:10 0
39 *4157:B *147:10 7.42621e-05
40 *4167:A2 *4206:B 8.08511e-05
41 *4167:A2 *151:12 0
42 *4167:A2 *299:8 0
43 *4167:A2 *373:155 0
44 *133:8 *460:109 8.06804e-06
45 *133:10 *4206:B 0.000130705
46 *133:10 *151:12 0
47 *133:10 *178:24 3.20914e-05
48 *133:10 *180:10 7.20889e-05
49 *133:10 *180:19 2.11887e-05
50 *133:10 *451:8 0
51 *133:10 *460:109 0
52 *133:23 *4165:A1 3.22879e-05
53 *133:38 *4165:A1 0.000100445
54 *133:38 *4364:D 7.10068e-06
55 *133:38 *4365:CLK 0.000155178
56 *133:38 *143:103 3.47781e-05
57 *133:38 *168:14 0
58 *133:38 *266:33 0.000130446
59 *133:38 *266:46 2.31797e-05
60 *133:38 *308:10 0.000185428
61 *133:38 *373:66 5.561e-05
62 *133:38 *373:132 3.82456e-05
63 *133:38 *373:145 3.31127e-05
64 *133:38 *508:10 0
65 *133:42 *4190:C 5.3304e-05
66 *133:42 *4357:D 0.000144256
67 *133:42 *143:74 2.93845e-05
68 *133:42 *143:88 0.000213869
69 *133:42 *168:6 1.4709e-05
70 *133:42 *168:27 0.000125269
71 *133:42 *264:117 5.50106e-05
72 *133:42 *264:119 5.50049e-05
73 *133:42 *333:8 9.75779e-05
74 *133:51 *4149:A 2.32004e-05
75 *133:51 *4169:A 0.000185434
76 *133:51 *143:14 1.91337e-05
77 *133:51 *333:8 0.000315852
78 *133:55 *4149:A 9.80568e-05
79 *133:55 *4188:B2 1.69564e-05
80 *133:55 *143:74 0
81 *133:93 *4172:C1 5.61255e-06
82 *133:93 *143:14 0.000280804
83 *133:93 *153:8 5.79715e-05
84 *133:93 *154:10 0.000111852
85 *133:93 *259:64 0.000232082
86 *133:93 *333:8 0.000140259
87 *133:93 *346:10 0
88 *133:93 *363:12 2.18506e-05
89 *133:93 *373:48 0.00039331
90 *133:93 *499:10 0.000138727
91 *133:93 *504:14 0.000137788
92 *133:93 *504:25 0
93 *133:108 *259:64 9.05451e-05
94 *133:108 *499:10 0.00031219
95 *133:108 *506:10 4.236e-05
96 *133:108 *507:10 9.67842e-05
97 *133:114 *156:10 1.14452e-05
98 *133:114 *157:8 0.000164528
99 *133:114 *348:10 3.22879e-05
100 *133:114 *495:12 0
101 *133:114 *507:10 9.03979e-05
102 *133:122 *4155:A 5.3304e-05
103 *133:122 *4156:C1 3.1157e-05
104 *133:122 *146:10 0.000178787
105 *133:122 *265:130 4.5051e-05
106 *133:122 *362:271 0.00011218
107 *133:122 *368:8 4.6318e-06
108 *133:122 *456:25 0.000400597
109 *133:122 *478:39 0.000122823
110 *133:122 *496:10 0.000235825
111 *133:134 *159:10 6.07611e-06
112 *133:134 *495:12 0
113 *133:147 *4530:A 6.57448e-05
114 *133:147 *4613:A 9.28739e-05
115 *133:147 *159:10 0
116 *133:147 *267:159 0.000238194
117 *133:147 *305:44 0.000425511
118 *133:147 *467:8 2.24973e-05
119 *133:147 *489:23 0
120 *133:159 *4154:B1_N 0.00030373
121 *133:159 *4158:A1 0.000188584
122 *133:159 *4561:A 9.67842e-05
123 *133:159 *4562:A 6.97004e-05
124 *133:159 *134:83 4.71384e-05
125 *133:159 *267:101 4.33876e-05
126 *133:159 *301:27 5.56279e-05
127 *133:159 *304:10 0.00016401
128 *133:159 *493:10 5.50049e-05
129 *133:166 *4154:B1_N 0.000385164
130 *133:166 *147:10 7.42621e-05
131 *537:DIODE *133:159 4.78593e-05
132 *4153:B1 *133:159 3.23857e-06
133 *4165:B1 *133:23 9.84851e-05
134 *4165:B1 *133:38 0.000118943
135 *4211:B *133:10 2.35393e-05
136 *4365:D *133:38 7.77236e-05
137 *4569:A *133:114 0.000308033
138 *3:17 *133:10 2.11157e-05
139 *24:10 *133:166 9.75779e-05
140 *37:8 *133:38 4.08537e-05
141 *97:12 *133:8 4.71331e-05
142 *97:22 *133:10 0.000528186
143 *98:10 *133:159 0.000142161
144 *100:206 *133:114 0.000154411
145 *100:215 *133:114 3.28904e-05
146 *100:215 *133:134 1.27035e-05
147 *100:215 *133:147 1.14452e-05
148 *100:234 *133:108 0.000197244
149 *100:245 *133:147 0.000182873
150 *100:295 *133:38 1.40958e-05
151 *100:328 *133:10 2.71291e-05
152 *130:44 *133:55 0.000222113
*RES
1 *4135:Y *133:8 39.4396 
2 *133:8 *133:10 13.1743 
3 *133:10 *4167:A2 43.7793 
4 *133:10 *133:23 16.0979 
5 *133:23 *4165:A2 23 
6 *133:23 *133:38 38.9664 
7 *133:38 *133:42 23.7207 
8 *133:42 *4149:B 23.4971 
9 *133:42 *133:51 3.48 
10 *133:51 *133:55 18.6664 
11 *133:55 *4148:B 45.6643 
12 *133:55 *4188:A2 38 
13 *133:51 *133:93 37.2471 
14 *133:93 *4163:A2 38 
15 *133:93 *133:108 42.2836 
16 *133:108 *133:114 31.4886 
17 *133:114 *133:122 43.34 
18 *133:122 *4155:B 23 
19 *133:114 *4159:B 23 
20 *133:108 *133:134 0.849286 
21 *133:134 *4161:A2 38 
22 *133:134 *133:147 27.8636 
23 *133:147 *133:159 42.9257 
24 *133:159 *4153:A2 23 
25 *133:147 *133:166 5.86214 
26 *133:166 *4154:A2 23.4971 
27 *133:166 *4157:B 24.5743 
*END

*D_NET *134 0.0373605
*CONN
*I *539:DIODE I *D sky130_fd_sc_hd__diode_2
*I *4158:A2 I *D sky130_fd_sc_hd__o211a_1
*I *544:DIODE I *D sky130_fd_sc_hd__diode_2
*I *4164:A2 I *D sky130_fd_sc_hd__a21o_1
*I *4162:A2 I *D sky130_fd_sc_hd__a21o_1
*I *4160:A2 I *D sky130_fd_sc_hd__o211a_1
*I *542:DIODE I *D sky130_fd_sc_hd__diode_2
*I *540:DIODE I *D sky130_fd_sc_hd__diode_2
*I *4156:A2 I *D sky130_fd_sc_hd__o211a_1
*I *538:DIODE I *D sky130_fd_sc_hd__diode_2
*I *4139:A2 I *D sky130_fd_sc_hd__a221o_1
*I *527:DIODE I *D sky130_fd_sc_hd__diode_2
*I *526:DIODE I *D sky130_fd_sc_hd__diode_2
*I *4166:A2 I *D sky130_fd_sc_hd__a21o_1
*I *546:DIODE I *D sky130_fd_sc_hd__diode_2
*I *548:DIODE I *D sky130_fd_sc_hd__diode_2
*I *4168:A2 I *D sky130_fd_sc_hd__a21o_1
*I *4136:X O *D sky130_fd_sc_hd__or4_4
*CAP
1 *539:DIODE 0.00027469
2 *4158:A2 0
3 *544:DIODE 0
4 *4164:A2 0
5 *4162:A2 0
6 *4160:A2 1.72941e-05
7 *542:DIODE 0
8 *540:DIODE 0
9 *4156:A2 0.0003041
10 *538:DIODE 0.000261645
11 *4139:A2 1.00947e-05
12 *527:DIODE 0.000163344
13 *526:DIODE 7.57079e-05
14 *4166:A2 8.45708e-05
15 *546:DIODE 0.000101846
16 *548:DIODE 0
17 *4168:A2 7.43422e-05
18 *4136:X 0
19 *134:207 0.000404876
20 *134:127 0.000354519
21 *134:125 0.000702859
22 *134:119 0.000768333
23 *134:115 0.000554016
24 *134:111 0.000573485
25 *134:107 0.000768852
26 *134:97 0.000762235
27 *134:95 0.000346498
28 *134:93 0.000982422
29 *134:83 0.00249789
30 *134:79 0.00382224
31 *134:64 0.00300976
32 *134:40 0.00092303
33 *134:24 0.000607839
34 *134:22 0.00174084
35 *134:14 0.00308939
36 *134:10 0.00128863
37 *134:4 0.000752548
38 *527:DIODE *4137:B 1.76557e-05
39 *527:DIODE *4297:B 0
40 *527:DIODE *230:35 0.000141954
41 *527:DIODE *335:65 1.14452e-05
42 *527:DIODE *372:6 0.00010018
43 *527:DIODE *422:18 4.96264e-05
44 *538:DIODE *351:22 4.75206e-05
45 *538:DIODE *399:14 5.50049e-05
46 *538:DIODE *429:14 1.38211e-05
47 *539:DIODE *267:159 6.07611e-06
48 *539:DIODE *495:12 4.98543e-05
49 *546:DIODE *4166:B1 7.88926e-05
50 *4156:A2 *495:33 4.56219e-05
51 *4156:A2 *514:20 2.47094e-05
52 *4160:A2 *4160:B1 1.09903e-05
53 *4166:A2 *4166:A1 2.93845e-05
54 *4166:A2 *4166:B1 5.50106e-05
55 *4166:A2 *511:10 2.96154e-05
56 *4168:A2 *4168:B1 0.00010018
57 *134:10 *151:12 0
58 *134:10 *356:12 5.31444e-05
59 *134:22 *4114:C_N 0
60 *134:22 *4255:A 0
61 *134:22 *4383:CLK 0.000191649
62 *134:22 *200:23 0.000385462
63 *134:22 *200:25 0.000508549
64 *134:22 *200:27 0.0001782
65 *134:22 *200:29 0.000236614
66 *134:22 *200:37 0.00063935
67 *134:22 *205:8 0
68 *134:22 *260:75 5.56203e-05
69 *134:22 *278:25 7.5783e-05
70 *134:22 *280:20 0
71 *134:22 *281:23 0
72 *134:22 *283:90 9.98995e-05
73 *134:22 *385:12 0
74 *134:22 *480:32 0
75 *134:24 *4168:B1 0.000317803
76 *134:40 *4244:C 7.80354e-05
77 *134:40 *140:66 5.561e-05
78 *134:40 *140:181 0.000129024
79 *134:40 *200:23 5.51222e-05
80 *134:40 *273:10 0
81 *134:40 *273:12 0
82 *134:40 *276:23 0.000416539
83 *134:40 *276:33 0
84 *134:40 *278:25 7.48331e-05
85 *134:64 *4136:A 1.76557e-05
86 *134:64 *373:257 0.000393293
87 *134:79 *4224:A2 4.9662e-05
88 *134:79 *4371:CLK 1.94693e-05
89 *134:79 *4426:A 2.30292e-05
90 *134:79 *180:38 0.000218503
91 *134:79 *266:8 0.000149736
92 *134:79 *455:6 5.10805e-05
93 *134:83 *4361:CLK 9.91895e-05
94 *134:83 *4369:D 7.10068e-06
95 *134:83 *4562:A 0.000135039
96 *134:83 *301:27 0.00010488
97 *134:83 *304:10 5.73843e-05
98 *134:83 *492:8 5.50049e-05
99 *134:93 *4613:A 0.000297222
100 *134:93 *267:159 9.25066e-05
101 *134:93 *362:238 4.08537e-05
102 *134:95 *417:8 0
103 *134:97 *150:16 3.04069e-05
104 *134:97 *428:10 0.000322639
105 *134:107 *150:16 5.19016e-05
106 *134:107 *373:12 0.000248649
107 *134:107 *478:39 0
108 *134:107 *491:24 0
109 *134:111 *373:12 5.50106e-05
110 *134:115 *4352:CLK 0.000244517
111 *134:115 *265:93 0.00024944
112 *134:115 *339:16 0.000833589
113 *134:119 *4155:A 0.000139647
114 *134:119 *265:93 0.000110922
115 *134:119 *335:55 0
116 *134:119 *338:10 9.48381e-06
117 *134:119 *339:16 0.000425539
118 *134:125 *136:10 7.65883e-06
119 *134:125 *335:55 0.000155068
120 *134:125 *335:65 6.16531e-05
121 *134:125 *338:10 9.41704e-05
122 *134:125 *399:14 0.000194327
123 *134:127 *136:10 6.42902e-05
124 *134:127 *335:65 0.000378102
125 *134:207 *267:159 0.00012662
126 *134:207 *362:238 5.61714e-05
127 *134:207 *493:10 0.000141879
128 *528:DIODE *4139:A2 1.46586e-05
129 *574:DIODE *134:127 0
130 *4136:C *526:DIODE 5.50106e-05
131 *4136:C *134:64 3.93271e-05
132 *4361:D *134:83 3.64381e-05
133 *4371:D *134:79 2.49733e-05
134 *4565:A *539:DIODE 6.17437e-06
135 *4586:A *4156:A2 7.15126e-05
136 *4586:A *134:125 6.9805e-05
137 *7:16 *134:111 8.27589e-05
138 *8:8 *134:93 0.000136109
139 *8:8 *134:95 2.26497e-05
140 *20:10 *134:127 0
141 *26:8 *539:DIODE 0
142 *60:8 *134:40 0
143 *100:206 *134:115 0.00016733
144 *103:10 *134:22 0
145 *103:12 *134:22 0
146 *109:8 *134:22 0
147 *113:8 *134:14 0.000858546
148 *115:10 *134:22 0.000112019
149 *122:32 *134:10 6.60662e-05
150 *133:159 *134:83 4.71384e-05
*RES
1 *4136:X *134:4 23 
2 *134:4 *134:10 32.9621 
3 *134:10 *134:14 32.2964 
4 *134:14 *134:22 46.9 
5 *134:22 *134:24 8.72071 
6 *134:24 *4168:A2 24.9471 
7 *134:24 *548:DIODE 23 
8 *134:14 *134:40 18.1043 
9 *134:40 *546:DIODE 39.5743 
10 *134:40 *4166:A2 39.8229 
11 *134:4 *134:64 9.19714 
12 *134:64 *526:DIODE 24.0979 
13 *134:64 *134:79 34.1579 
14 *134:79 *134:83 35.155 
15 *134:83 *134:93 43.7336 
16 *134:93 *134:95 1.90571 
17 *134:95 *134:97 5.77929 
18 *134:97 *134:107 25.8543 
19 *134:107 *134:111 4.32929 
20 *134:111 *134:115 26.4136 
21 *134:115 *134:119 20.7793 
22 *134:119 *134:125 20.4893 
23 *134:125 *134:127 5.075 
24 *134:127 *527:DIODE 41.8321 
25 *134:127 *4139:A2 38.1709 
26 *134:125 *538:DIODE 41.48 
27 *134:119 *4156:A2 27.6814 
28 *134:115 *540:DIODE 38 
29 *134:111 *542:DIODE 23 
30 *134:107 *4160:A2 23.4971 
31 *134:97 *4162:A2 38 
32 *134:95 *4164:A2 38 
33 *134:93 *544:DIODE 38 
34 *134:83 *134:207 3.66643 
35 *134:207 *4158:A2 38 
36 *134:207 *539:DIODE 42.3086 
*END

*D_NET *135 0.00172727
*CONN
*I *4138:A I *D sky130_fd_sc_hd__inv_2
*I *4457:A I *D sky130_fd_sc_hd__dlygate4sd3_1
*I *4137:X O *D sky130_fd_sc_hd__or4b_1
*CAP
1 *4138:A 0.000234906
2 *4457:A 0
3 *4137:X 0.000210574
4 *135:8 0.000445481
5 *4138:A *136:10 7.1357e-05
6 *4138:A *225:10 0
7 *4138:A *351:22 0.000224345
8 *4138:A *362:47 0
9 *135:8 *4297:B 0.000191148
10 *135:8 *136:10 1.59312e-05
11 *135:8 *225:10 0
12 *135:8 *233:8 0.0001366
13 *135:8 *367:64 6.32792e-05
14 *135:8 *372:21 0.000133649
*RES
1 *4137:X *135:8 43.075 
2 *135:8 *4457:A 38 
3 *135:8 *4138:A 43.7793 
*END

*D_NET *136 0.00156696
*CONN
*I *4139:B1 I *D sky130_fd_sc_hd__a221o_1
*I *4138:Y O *D sky130_fd_sc_hd__inv_2
*CAP
1 *4139:B1 0
2 *4138:Y 0.000300671
3 *136:10 0.000300671
4 *136:10 *335:65 0.00025214
5 *136:10 *338:10 9.67842e-05
6 *136:10 *351:22 6.79006e-05
7 *136:10 *367:64 0.000195248
8 *136:10 *399:14 0.000194309
9 *4138:A *136:10 7.1357e-05
10 *134:125 *136:10 7.65883e-06
11 *134:127 *136:10 6.42902e-05
12 *135:8 *136:10 1.59312e-05
*RES
1 *4138:Y *136:10 46.99 
2 *136:10 *4139:B1 38 
*END

*D_NET *137 0.000145764
*CONN
*I *4450:A I *D sky130_fd_sc_hd__dlygate4sd3_1
*I *4140:X O *D sky130_fd_sc_hd__or4b_1
*CAP
1 *4450:A 3.30143e-05
2 *4140:X 3.30143e-05
3 *4450:A *288:10 2.30292e-05
4 *4450:A *365:14 5.67058e-05
*RES
1 *4140:X *4450:A 47.1186 
*END

*D_NET *138 0.000923511
*CONN
*I *4152:A3 I *D sky130_fd_sc_hd__a32o_1
*I *4141:Y O *D sky130_fd_sc_hd__inv_2
*CAP
1 *4152:A3 0
2 *4141:Y 0.000201217
3 *138:16 0.000201217
4 *138:16 *4152:A2 0.000111602
5 *138:16 *4379:CLK 0.00034097
6 *138:16 *140:209 3.32677e-05
7 *138:16 *373:276 3.52383e-05
*RES
1 *4141:Y *138:16 29.8357 
2 *138:16 *4152:A3 23 
*END

*D_NET *139 0.000398582
*CONN
*I *4143:B1 I *D sky130_fd_sc_hd__a31o_1
*I *4142:X O *D sky130_fd_sc_hd__and3_1
*CAP
1 *4143:B1 6.69944e-06
2 *4142:X 5.70151e-05
3 *139:10 6.37145e-05
4 *4143:B1 *4099:A 1.28818e-05
5 *4143:B1 *4141:A 6.39489e-06
6 *139:10 *4099:A 9.84851e-05
7 *139:10 *151:12 1.62015e-05
8 *139:10 *263:65 0
9 *139:10 *356:78 3.70094e-05
10 *139:10 *373:274 0.00010018
*RES
1 *4142:X *139:10 39.9471 
2 *139:10 *4143:B1 38.1502 
*END

*D_NET *140 0.0246686
*CONN
*I *4152:B1 I *D sky130_fd_sc_hd__a32o_1
*I *4244:C I *D sky130_fd_sc_hd__and3b_1
*I *4246:B1 I *D sky130_fd_sc_hd__o21ai_1
*I *4277:B1 I *D sky130_fd_sc_hd__o21ai_1
*I *4275:B1 I *D sky130_fd_sc_hd__o21ai_1
*I *4266:B1 I *D sky130_fd_sc_hd__o21ai_1
*I *4269:B1 I *D sky130_fd_sc_hd__o21ai_1
*I *4263:B1 I *D sky130_fd_sc_hd__o21ai_1
*I *4257:B1 I *D sky130_fd_sc_hd__o21ai_1
*I *4260:B1 I *D sky130_fd_sc_hd__o21ai_1
*I *4272:B1 I *D sky130_fd_sc_hd__o21ai_1
*I *4281:A I *D sky130_fd_sc_hd__and3_1
*I *4145:B1 I *D sky130_fd_sc_hd__a22o_1
*I *4248:B1 I *D sky130_fd_sc_hd__o21ai_1
*I *4254:B1 I *D sky130_fd_sc_hd__o21ai_1
*I *4252:B I *D sky130_fd_sc_hd__and3b_1
*I *4144:Y O *D sky130_fd_sc_hd__nor2_4
*CAP
1 *4152:B1 0
2 *4244:C 0.000271349
3 *4246:B1 3.2539e-05
4 *4277:B1 0
5 *4275:B1 0
6 *4266:B1 0
7 *4269:B1 0.000280026
8 *4263:B1 0.000258536
9 *4257:B1 0.000107437
10 *4260:B1 0
11 *4272:B1 0.000172605
12 *4281:A 0
13 *4145:B1 0
14 *4248:B1 0.000363282
15 *4254:B1 0
16 *4252:B 0.000398797
17 *4144:Y 5.82187e-05
18 *140:209 0.000506628
19 *140:181 0.000420664
20 *140:169 0.000668724
21 *140:132 0.000917416
22 *140:124 0.000417181
23 *140:108 0.000593413
24 *140:100 0.000986079
25 *140:89 0.000797466
26 *140:83 0.00083181
27 *140:81 0.000248819
28 *140:72 0.00109295
29 *140:66 0.00171339
30 *140:53 0.00075249
31 *140:51 0.000953414
32 *140:38 0.00102008
33 *140:18 0.00125685
34 *140:8 0.00112628
35 *4244:C *4244:A_N 1.57571e-05
36 *4244:C *4516:A 7.44257e-05
37 *4244:C *273:12 7.91596e-05
38 *4246:B1 *259:173 2.93845e-05
39 *4248:B1 *4248:A2 0.00010018
40 *4248:B1 *279:66 0.000481543
41 *4252:B *4252:A_N 0.00021505
42 *4252:B *204:10 2.96051e-05
43 *4252:B *259:116 0.000380352
44 *4263:B1 *4265:D 0.000135999
45 *4263:B1 *4267:A 0
46 *4263:B1 *207:36 8.51432e-05
47 *4263:B1 *212:10 5.37348e-06
48 *4263:B1 *377:8 5.758e-05
49 *4263:B1 *411:10 0.000161814
50 *4269:B1 *4120:D_N 0
51 *4269:B1 *4265:D 7.03869e-05
52 *4269:B1 *4267:A 0
53 *4269:B1 *4268:B 0.000187129
54 *4269:B1 *4269:A1 2.18409e-05
55 *4269:B1 *285:10 7.03766e-05
56 *4269:B1 *285:23 8.16253e-05
57 *4269:B1 *286:6 0.000228903
58 *140:18 *4381:CLK 0
59 *140:18 *4382:CLK 0.000148688
60 *140:18 *4398:CLK 0
61 *140:18 *204:10 7.45175e-05
62 *140:18 *260:96 0.000270682
63 *140:18 *261:84 0
64 *140:18 *261:106 0
65 *140:18 *287:10 0
66 *140:38 *287:10 0
67 *140:38 *290:37 0
68 *140:38 *373:222 4.26853e-05
69 *140:38 *512:10 0
70 *140:51 *4122:A1 0
71 *140:51 *356:18 2.96154e-05
72 *140:51 *356:27 6.07611e-06
73 *140:51 *373:222 6.28695e-05
74 *140:51 *373:231 0.000101445
75 *140:51 *373:244 1.94685e-05
76 *140:66 *4110:C 4.9662e-05
77 *140:66 *4380:CLK 0.000123934
78 *140:66 *4380:D 1.64354e-05
79 *140:66 *200:23 0.000111852
80 *140:66 *278:12 8.06804e-06
81 *140:72 *4247:A 0.000181131
82 *140:72 *4281:C 0.000128533
83 *140:72 *4485:A 7.44257e-05
84 *140:81 *221:10 2.93845e-05
85 *140:89 *4280:C 0.000102365
86 *140:89 *219:19 1.22803e-05
87 *140:89 *274:16 8.40914e-05
88 *140:100 *4104:C 6.16439e-05
89 *140:100 *4107:A 3.04021e-05
90 *140:100 *4107:D_N 0
91 *140:100 *4117:B 7.02649e-05
92 *140:100 *4265:B 0
93 *140:100 *274:16 0.000219891
94 *140:100 *274:20 0.000157309
95 *140:100 *275:18 5.86432e-05
96 *140:100 *284:49 0.000300117
97 *140:100 *284:65 0
98 *140:100 *376:19 0
99 *140:108 *4265:B 0
100 *140:108 *210:8 0.00010018
101 *140:108 *211:21 3.5664e-05
102 *140:108 *283:23 0
103 *140:108 *284:10 8.85189e-05
104 *140:108 *284:36 7.90161e-05
105 *140:108 *284:49 0.000186025
106 *140:108 *410:14 0
107 *140:108 *412:8 0
108 *140:132 *4495:A 0.000310647
109 *140:132 *214:8 0.000184075
110 *140:132 *411:10 6.16283e-05
111 *140:169 *4275:A1 5.67058e-05
112 *140:169 *4275:A2 5.41385e-05
113 *140:169 *4278:A2 5.90675e-06
114 *140:169 *219:6 3.22879e-05
115 *140:169 *219:17 6.51746e-05
116 *140:169 *219:19 6.4393e-05
117 *140:169 *262:8 0.00019389
118 *140:169 *275:10 0
119 *140:181 *200:23 3.47781e-05
120 *140:181 *273:12 0.000118807
121 *140:209 *4152:A1 0.000104123
122 *140:209 *4152:A2 1.06415e-05
123 *140:209 *290:8 0.000151059
124 *140:209 *290:12 1.27321e-05
125 *140:209 *290:29 7.56596e-05
126 *140:209 *356:27 0
127 *140:209 *373:244 3.47781e-05
128 *140:209 *460:91 0.000138718
129 *140:209 *488:78 0.000212702
130 *140:209 *488:85 3.0647e-05
131 *4122:B1_N *140:38 0
132 *4122:B1_N *140:51 0
133 *4144:B *140:8 2.93747e-05
134 *4382:D *140:18 0.000102738
135 *18:8 *140:209 5.80963e-05
136 *72:8 *140:169 0.000268074
137 *73:8 *140:72 0.000136961
138 *75:10 *4252:B 0
139 *75:10 *140:18 0
140 *120:8 *140:100 0
141 *134:40 *4244:C 7.80354e-05
142 *134:40 *140:66 5.561e-05
143 *134:40 *140:181 0.000129024
144 *138:16 *140:209 3.32677e-05
*RES
1 *4144:Y *140:8 39.0979 
2 *140:8 *140:18 46.9443 
3 *140:18 *4252:B 46.5343 
4 *140:18 *4254:B1 38 
5 *140:8 *140:38 3.66643 
6 *140:38 *4248:B1 46.265 
7 *140:38 *140:51 8.24429 
8 *140:51 *140:53 15 
9 *140:53 *4145:B1 23 
10 *140:53 *140:66 28.1536 
11 *140:66 *140:72 27.5529 
12 *140:72 *4281:A 23 
13 *140:72 *140:81 4.32929 
14 *140:81 *140:83 15 
15 *140:83 *140:89 19.4121 
16 *140:89 *4272:B1 25.5271 
17 *140:89 *140:100 26.4136 
18 *140:100 *140:108 24.9636 
19 *140:108 *4260:B1 23 
20 *140:108 *4257:B1 25.0507 
21 *140:100 *140:124 15.6214 
22 *140:124 *140:132 23.8864 
23 *140:132 *4263:B1 44.7529 
24 *140:132 *4269:B1 45.9543 
25 *140:124 *4266:B1 23 
26 *140:83 *140:169 27.5736 
27 *140:169 *4275:B1 23 
28 *140:81 *4277:B1 23 
29 *140:66 *140:181 3.66643 
30 *140:181 *4246:B1 38.6214 
31 *140:181 *4244:C 42.785 
32 *140:51 *140:209 27.8946 
33 *140:209 *4152:B1 23 
*END

*D_NET *141 0.00111169
*CONN
*I *4286:A I *D sky130_fd_sc_hd__nor2_1
*I *4147:B1 I *D sky130_fd_sc_hd__a31o_1
*I *4146:Y O *D sky130_fd_sc_hd__nor3_1
*CAP
1 *4286:A 0
2 *4147:B1 0
3 *4146:Y 0.000171956
4 *141:18 0.000193409
5 *141:10 0.000365365
6 *141:10 *4132:A1 0
7 *141:10 *4146:C 7.53384e-06
8 *141:10 *4286:B 9.58714e-05
9 *141:10 *225:10 5.56356e-05
10 *141:10 *429:14 1.7733e-05
11 *141:18 *226:57 0.000161121
12 *141:18 *265:12 1.37246e-05
13 *141:18 *429:14 2.93431e-05
*RES
1 *4146:Y *141:10 26.5214 
2 *141:10 *141:18 33.2314 
3 *141:18 *4147:B1 23 
4 *141:10 *4286:A 23 
*END

*D_NET *142 0.0146474
*CONN
*I *4177:A I *D sky130_fd_sc_hd__or2_1
*I *4180:A I *D sky130_fd_sc_hd__or2_1
*I *4183:A I *D sky130_fd_sc_hd__or2_1
*I *4284:A3 I *D sky130_fd_sc_hd__a31o_1
*I *4151:A2 I *D sky130_fd_sc_hd__a22o_1
*I *4186:A I *D sky130_fd_sc_hd__or2_1
*I *4174:A I *D sky130_fd_sc_hd__or2_1
*I *4171:A I *D sky130_fd_sc_hd__or2_1
*I *4148:X O *D sky130_fd_sc_hd__and2_2
*CAP
1 *4177:A 0
2 *4180:A 0
3 *4183:A 0
4 *4284:A3 0
5 *4151:A2 0
6 *4186:A 0.000100448
7 *4174:A 0.000224796
8 *4171:A 0
9 *4148:X 0.000557867
10 *142:119 0.000811811
11 *142:100 0.000235683
12 *142:69 0.000747564
13 *142:57 0.00166838
14 *142:49 0.00103765
15 *142:36 0.000602271
16 *142:32 0.00089064
17 *142:28 0.00129829
18 *142:12 0.000224796
19 *142:10 0.00077438
20 *4174:A *4171:B 9.41704e-05
21 *4174:A *157:8 5.40337e-05
22 *4186:A *4186:B 2.18506e-05
23 *142:10 *4102:A 9.30151e-05
24 *142:10 *259:53 2.76611e-06
25 *142:10 *259:64 0.000108907
26 *142:10 *360:62 0.0002263
27 *142:10 *363:12 7.81176e-05
28 *142:10 *514:20 0.000521827
29 *142:28 *363:12 0.000151909
30 *142:28 *373:48 0
31 *142:28 *373:343 0
32 *142:32 *4179:A1 0.000183733
33 *142:32 *153:30 0.000229693
34 *142:32 *153:34 2.31797e-05
35 *142:36 *4185:A0 5.50049e-05
36 *142:36 *4186:B 0.000239417
37 *142:36 *153:30 0.000103647
38 *142:49 *4184:A2 0.000108672
39 *142:49 *143:74 1.13579e-05
40 *142:49 *162:8 0.000251522
41 *142:57 *143:74 9.86551e-06
42 *142:57 *162:8 1.05441e-05
43 *142:69 *535:DIODE 2.64616e-05
44 *142:69 *4151:A1 0.000112255
45 *142:69 *4151:B2 3.17516e-05
46 *142:69 *259:14 0
47 *142:69 *307:23 0
48 *142:69 *350:14 0
49 *142:69 *373:66 0.0002129
50 *142:69 *373:68 7.70737e-05
51 *142:69 *373:70 8.02348e-05
52 *142:69 *373:72 0.000129513
53 *142:69 *373:74 0.000637751
54 *142:69 *373:132 4.87235e-05
55 *142:100 *4163:A1 5.50049e-05
56 *142:100 *4182:S 2.39911e-05
57 *142:100 *331:25 5.50049e-05
58 *142:100 *501:8 0.000109611
59 *142:119 *159:10 0.000101421
60 *142:119 *362:145 4.6318e-06
61 *142:119 *363:12 0.000265482
62 *142:119 *373:343 0
63 *142:119 *479:20 3.98604e-05
64 *142:119 *491:24 2.75733e-06
65 *142:119 *503:8 0.000169683
66 *4479:A *142:69 4.00259e-06
67 *34:8 *142:119 5.0155e-05
68 *35:10 *142:119 0.000266422
69 *76:8 *142:69 1.22906e-05
70 *96:10 *142:69 0
71 *100:79 *142:69 0.00037627
*RES
1 *4148:X *142:10 49.6207 
2 *142:10 *142:12 15 
3 *142:12 *4171:A 23 
4 *142:12 *4174:A 26.9771 
5 *142:10 *142:28 4.01857 
6 *142:28 *142:32 20.8621 
7 *142:32 *142:36 8.265 
8 *142:36 *4186:A 24.5743 
9 *142:36 *142:49 18.9357 
10 *142:49 *142:57 18.2661 
11 *142:57 *142:69 34.72 
12 *142:69 *4151:A2 23 
13 *142:57 *4284:A3 38 
14 *142:49 *4183:A 38 
15 *142:32 *142:100 33.77 
16 *142:100 *4180:A 23 
17 *142:28 *142:119 30.8879 
18 *142:119 *4177:A 23 
*END

*D_NET *143 0.0141799
*CONN
*I *4184:A2 I *D sky130_fd_sc_hd__o211a_1
*I *4187:A2 I *D sky130_fd_sc_hd__o211a_1
*I *4189:A2 I *D sky130_fd_sc_hd__o211a_1
*I *4190:C I *D sky130_fd_sc_hd__and3_1
*I *4172:A2 I *D sky130_fd_sc_hd__o211a_1
*I *4178:A2 I *D sky130_fd_sc_hd__o211a_1
*I *4181:A2 I *D sky130_fd_sc_hd__o211a_1
*I *4175:A2 I *D sky130_fd_sc_hd__o211a_1
*I *4149:Y O *D sky130_fd_sc_hd__nand2_2
*CAP
1 *4184:A2 0.00032925
2 *4187:A2 0
3 *4189:A2 0
4 *4190:C 0.000105005
5 *4172:A2 0
6 *4178:A2 0
7 *4181:A2 0.00012659
8 *4175:A2 0
9 *4149:Y 0
10 *143:103 0.000237201
11 *143:88 0.000615986
12 *143:80 0.000512704
13 *143:74 0.000860879
14 *143:56 0.000723547
15 *143:31 0.00132008
16 *143:24 0.000525583
17 *143:16 0.000995523
18 *143:14 0.000739939
19 *143:4 0.00103264
20 *4181:A2 *551:DIODE 3.7122e-06
21 *4181:A2 *4181:C1 5.3304e-05
22 *4181:A2 *362:145 9.41704e-05
23 *4181:A2 *373:355 5.61255e-06
24 *4184:A2 *162:8 3.96156e-05
25 *4184:A2 *163:10 0.000595473
26 *4184:A2 *331:8 0
27 *4184:A2 *362:130 1.52362e-05
28 *4190:C *264:119 4.08713e-05
29 *143:14 *4149:A 9.91798e-05
30 *143:14 *4169:A 1.5769e-05
31 *143:14 *4172:C1 9.338e-05
32 *143:14 *153:8 0.000178517
33 *143:24 *4170:A0 0.000142632
34 *143:24 *4170:S 2.18409e-05
35 *143:24 *4175:B1 4.344e-05
36 *143:24 *4351:CLK 1.14452e-05
37 *143:24 *146:20 0
38 *143:24 *155:10 1.14452e-05
39 *143:24 *327:8 9.65323e-05
40 *143:24 *362:35 3.18142e-05
41 *143:24 *362:107 6.48142e-05
42 *143:24 *364:10 8.92738e-05
43 *143:24 *456:12 0.00105042
44 *143:24 *514:20 0
45 *143:31 *4182:S 0
46 *143:31 *4354:CLK 0.000141879
47 *143:31 *155:10 0.000124102
48 *143:31 *160:8 6.68793e-05
49 *143:31 *267:14 0.000168754
50 *143:31 *362:107 0.000237255
51 *143:31 *362:137 0.000730003
52 *143:31 *373:60 2.97072e-05
53 *143:31 *501:8 0
54 *143:56 *4181:C1 3.53546e-05
55 *143:56 *267:14 4.16933e-05
56 *143:56 *362:137 1.14452e-05
57 *143:56 *491:24 0.000131134
58 *143:56 *506:10 2.26497e-05
59 *143:74 *4149:A 1.14154e-05
60 *143:74 *4169:A 1.19796e-05
61 *143:74 *168:27 6.17437e-06
62 *143:74 *361:8 0
63 *143:74 *362:130 7.75736e-06
64 *143:80 *4187:C1 0.000228903
65 *143:80 *163:10 2.93747e-05
66 *143:80 *362:117 7.1349e-05
67 *143:80 *373:64 4.94192e-05
68 *143:88 *165:10 1.05441e-05
69 *143:88 *168:14 5.56935e-05
70 *143:88 *508:10 1.05441e-05
71 *143:103 *168:14 1.34354e-05
72 *143:103 *264:117 0.000122397
73 *143:103 *373:66 3.74442e-05
74 *143:103 *373:68 2.79004e-05
75 *143:103 *373:70 9.21347e-06
76 *97:77 *4181:A2 2.02872e-05
77 *100:90 *143:103 3.0647e-05
78 *133:38 *143:103 3.47781e-05
79 *133:42 *4190:C 5.3304e-05
80 *133:42 *143:74 2.93845e-05
81 *133:42 *143:88 0.000213869
82 *133:51 *143:14 1.91337e-05
83 *133:55 *143:74 0
84 *133:93 *143:14 0.000280804
85 *142:49 *4184:A2 0.000108672
86 *142:49 *143:74 1.13579e-05
87 *142:57 *143:74 9.86551e-06
*RES
1 *4149:Y *143:4 23 
2 *143:4 *143:14 12.8429 
3 *143:14 *143:16 15 
4 *143:16 *143:24 30.7429 
5 *143:24 *4175:A2 23 
6 *143:16 *143:31 13.1743 
7 *143:31 *4181:A2 40.5686 
8 *143:31 *143:56 33.4242 
9 *143:56 *4178:A2 23 
10 *143:14 *4172:A2 23 
11 *143:4 *143:74 19.4329 
12 *143:74 *143:80 20.8829 
13 *143:80 *143:88 34.4329 
14 *143:88 *4190:C 24.4396 
15 *143:88 *143:103 34.64 
16 *143:103 *4189:A2 23 
17 *143:80 *4187:A2 23 
18 *143:74 *4184:A2 46.5964 
*END

*D_NET *144 0.0225477
*CONN
*I *4336:C1 I *D sky130_fd_sc_hd__o211a_1
*I *4330:B1 I *D sky130_fd_sc_hd__o21ai_1
*I *4328:B1 I *D sky130_fd_sc_hd__o21ai_1
*I *4326:B I *D sky130_fd_sc_hd__and3b_1
*I *4322:B1 I *D sky130_fd_sc_hd__o21ai_1
*I *4320:B1 I *D sky130_fd_sc_hd__o21ai_1
*I *4314:B1 I *D sky130_fd_sc_hd__o21ai_1
*I *4151:B1 I *D sky130_fd_sc_hd__a22o_1
*I *4301:C I *D sky130_fd_sc_hd__and3b_1
*I *4302:B1 I *D sky130_fd_sc_hd__o21ai_1
*I *4317:B1 I *D sky130_fd_sc_hd__o21ai_1
*I *4312:B I *D sky130_fd_sc_hd__and3b_1
*I *4334:A I *D sky130_fd_sc_hd__and3_1
*I *4307:B I *D sky130_fd_sc_hd__and3b_1
*I *4309:C1 I *D sky130_fd_sc_hd__o211a_1
*I *4150:Y O *D sky130_fd_sc_hd__nor2_4
*CAP
1 *4336:C1 2.1727e-05
2 *4330:B1 0
3 *4328:B1 0
4 *4326:B 7.37141e-05
5 *4322:B1 5.65943e-05
6 *4320:B1 0
7 *4314:B1 0
8 *4151:B1 0
9 *4301:C 0
10 *4302:B1 0.000137028
11 *4317:B1 0
12 *4312:B 0
13 *4334:A 0
14 *4307:B 0.000139749
15 *4309:C1 0.00024454
16 *4150:Y 3.18595e-05
17 *144:205 0.000237289
18 *144:174 0.000568589
19 *144:156 0.000187904
20 *144:148 0.000641015
21 *144:142 0.00104339
22 *144:140 0.000603855
23 *144:138 0.0013278
24 *144:124 0.00132843
25 *144:122 0.000809594
26 *144:95 0.000309042
27 *144:78 0.000543458
28 *144:68 0.000926328
29 *144:60 0.00106949
30 *144:26 0.000507549
31 *144:24 0.00118236
32 *144:18 0.000896765
33 *144:10 0.000614062
34 *144:6 0.000866312
35 *4302:B1 *4301:A_N 5.3304e-05
36 *4302:B1 *4301:B 3.34247e-05
37 *4302:B1 *236:10 1.32314e-05
38 *4309:C1 *4304:A1 3.88504e-05
39 *4309:C1 *4304:B1 0.000244507
40 *4309:C1 *237:10 0.000139346
41 *4309:C1 *319:8 1.01436e-05
42 *4309:C1 *446:10 3.57033e-05
43 *4322:B1 *4322:A1 0.000315852
44 *4322:B1 *4322:A2 0.000177899
45 *4336:C1 *4336:A2 4.00259e-06
46 *144:6 *549:DIODE 1.5769e-05
47 *144:10 *4151:A1 3.82956e-05
48 *144:10 *317:8 0.000246739
49 *144:10 *373:74 8.77369e-05
50 *144:18 *4151:A1 3.04991e-05
51 *144:18 *264:14 3.45333e-05
52 *144:18 *388:36 6.46138e-05
53 *144:24 *4127:D_N 0.000267173
54 *144:24 *4305:B 4.16661e-05
55 *144:24 *238:10 0
56 *144:24 *319:8 3.70187e-05
57 *144:24 *388:23 0.000262169
58 *144:24 *427:22 1.76557e-05
59 *144:24 *446:10 2.72055e-05
60 *144:24 *446:36 2.36844e-05
61 *144:26 *4304:B1 0.000283651
62 *144:26 *319:8 0.000321581
63 *144:26 *388:23 3.47781e-05
64 *144:60 *4306:A 0.00019685
65 *144:60 *4306:B 7.445e-05
66 *144:60 *4310:B1 0.00010018
67 *144:60 *4311:B 0.000185428
68 *144:60 *4317:A1 0
69 *144:60 *4317:A2 0
70 *144:60 *234:24 2.33397e-05
71 *144:60 *234:28 1.72202e-05
72 *144:60 *238:14 1.03955e-05
73 *144:60 *239:10 4.06849e-05
74 *144:60 *242:10 8.24734e-05
75 *144:60 *353:16 0.000139236
76 *144:60 *388:8 5.3304e-05
77 *144:60 *407:12 1.76557e-05
78 *144:68 *4408:D 3.24476e-06
79 *144:68 *264:49 3.63546e-05
80 *144:68 *407:26 0
81 *144:78 *4128:A 5.3656e-05
82 *144:78 *4129:A 0
83 *144:78 *242:10 2.60152e-05
84 *144:78 *245:31 1.01436e-05
85 *144:78 *252:70 2.93747e-05
86 *144:78 *264:49 0
87 *144:78 *408:10 0.000298257
88 *144:78 *416:23 0
89 *144:78 *519:19 1.34354e-05
90 *144:95 *4301:A_N 9.30054e-05
91 *144:95 *427:22 1.22822e-05
92 *144:122 *549:DIODE 9.5877e-05
93 *144:122 *4336:A2 6.82611e-05
94 *144:124 *4336:A2 7.59794e-05
95 *144:138 *4414:CLK 0.000266265
96 *144:138 *4414:D 0.000191382
97 *144:138 *152:16 0
98 *144:138 *251:18 2.08324e-05
99 *144:138 *259:106 0.000268074
100 *144:138 *261:8 4.94192e-05
101 *144:138 *261:16 0.000185104
102 *144:138 *314:10 2.7237e-05
103 *144:140 *4324:A2 0
104 *144:140 *247:25 0
105 *144:140 *250:8 4.334e-05
106 *144:140 *251:18 0.000318187
107 *144:140 *261:16 3.70187e-05
108 *144:140 *261:29 0
109 *144:140 *261:40 0
110 *144:140 *458:20 0
111 *144:142 *247:25 0
112 *144:148 *4129:C 0
113 *144:148 *4320:A1 0.00010018
114 *144:148 *245:12 0.000141954
115 *144:148 *247:25 0
116 *144:148 *248:10 2.4754e-05
117 *144:148 *261:40 0
118 *144:148 *261:46 0
119 *144:148 *517:10 6.51843e-05
120 *144:156 *242:61 0
121 *144:156 *243:8 0
122 *144:156 *261:46 8.93663e-05
123 *144:156 *517:10 0.000217729
124 *144:174 *4321:B 5.47808e-05
125 *144:174 *247:12 2.81406e-06
126 *144:174 *261:40 0
127 *144:205 *252:45 2.96154e-05
128 *144:205 *315:10 0
129 *144:205 *471:51 0.00010528
130 *4336:A1 *144:122 0.000356718
131 *4501:A *4326:B 5.41288e-05
132 *4525:A *144:174 4.9662e-05
133 *83:10 *4307:B 3.82058e-06
134 *85:10 *144:68 1.47955e-05
135 *94:6 *144:122 9.74722e-05
136 *100:106 *144:10 0.000141879
137 *126:8 *144:24 1.14452e-05
138 *130:16 *144:10 0.000319219
139 *130:16 *144:18 0.000233442
*RES
1 *4150:Y *144:6 23.6214 
2 *144:6 *144:10 23.5964 
3 *144:10 *144:18 23.3064 
4 *144:18 *144:24 22.8507 
5 *144:24 *144:26 4.37071 
6 *144:26 *4309:C1 44.3386 
7 *144:26 *4307:B 39.5743 
8 *144:24 *144:60 28.5679 
9 *144:60 *144:68 35.3857 
10 *144:68 *144:78 40.1914 
11 *144:78 *4334:A 23 
12 *144:68 *4312:B 23 
13 *144:60 *4317:B1 23 
14 *144:18 *144:95 2.52714 
15 *144:95 *4302:B1 25.9207 
16 *144:95 *4301:C 23 
17 *144:10 *4151:B1 38 
18 *144:6 *144:122 11.4757 
19 *144:122 *144:124 3.48 
20 *144:124 *144:138 34.285 
21 *144:138 *144:140 9.65286 
22 *144:140 *144:142 1.20143 
23 *144:142 *144:148 24.0107 
24 *144:148 *144:156 34.4121 
25 *144:156 *4314:B1 23 
26 *144:148 *4320:B1 23 
27 *144:142 *144:174 36.815 
28 *144:174 *4322:B1 41.48 
29 *144:140 *4326:B 39.0979 
30 *144:138 *4328:B1 38 
31 *144:124 *144:205 35.075 
32 *144:205 *4330:B1 23 
33 *144:122 *4336:C1 23.4971 
*END

*D_NET *145 0.00209505
*CONN
*I *4154:B1_N I *D sky130_fd_sc_hd__o21ba_1
*I *4153:X O *D sky130_fd_sc_hd__a21o_1
*CAP
1 *4154:B1_N 0.000179866
2 *4153:X 5.53851e-05
3 *145:8 0.000235251
4 *4154:B1_N *4562:A 0.000389777
5 *4154:B1_N *147:10 0.000228001
6 *4154:B1_N *492:8 4.04303e-05
7 *145:8 *495:12 0.000138727
8 *100:263 *145:8 0.000138719
9 *133:159 *4154:B1_N 0.00030373
10 *133:166 *4154:B1_N 0.000385164
*RES
1 *4153:X *145:8 39.9057 
2 *145:8 *4154:B1_N 45.7679 
*END

*D_NET *146 0.00710995
*CONN
*I *4584:A I *D sky130_fd_sc_hd__dlygate4sd3_1
*I *4155:X O *D sky130_fd_sc_hd__or2_1
*CAP
1 *4584:A 0
2 *4155:X 8.52744e-05
3 *146:20 0.00288388
4 *146:10 0.00296915
5 *146:10 *4156:C1 6.64654e-05
6 *146:10 *478:39 1.05658e-05
7 *146:20 *4188:B1 7.06021e-05
8 *146:20 *153:21 7.73405e-05
9 *146:20 *155:10 0
10 *146:20 *335:18 0
11 *146:20 *362:117 0.00012103
12 *146:20 *373:60 0.000140763
13 *146:20 *513:8 0.000159258
14 uart_txd *146:20 0.000346824
15 *4148:B *146:20 0
16 *133:122 *146:10 0.000178787
17 *143:24 *146:20 0
*RES
1 *4155:X *146:10 48.4339 
2 *146:10 *146:20 38.2882 
3 *146:20 *4584:A 23 
*END

*D_NET *147 0.00142296
*CONN
*I *4564:A I *D sky130_fd_sc_hd__dlygate4sd3_1
*I *4157:X O *D sky130_fd_sc_hd__or2_1
*CAP
1 *4564:A 0
2 *4157:X 0.000230817
3 *147:10 0.000230817
4 *147:10 *492:8 0.000584804
5 *4154:A2 *147:10 0
6 *4154:B1_N *147:10 0.000228001
7 *4157:B *147:10 7.42621e-05
8 *133:166 *147:10 7.42621e-05
*RES
1 *4157:X *147:10 31.2857 
2 *147:10 *4564:A 23 
*END

*D_NET *148 0.000673297
*CONN
*I *4568:A I *D sky130_fd_sc_hd__dlygate4sd3_1
*I *4159:X O *D sky130_fd_sc_hd__or2_1
*CAP
1 *4568:A 0
2 *4159:X 0.000336648
3 *148:10 0.000336648
*RES
1 *4159:X *148:10 29.0071 
2 *148:10 *4568:A 23 
*END

*D_NET *149 0.000972035
*CONN
*I *4162:B1 I *D sky130_fd_sc_hd__a21o_1
*I *4161:X O *D sky130_fd_sc_hd__a21o_1
*CAP
1 *4162:B1 0
2 *4161:X 0.000239544
3 *149:6 0.000239544
4 *149:6 *507:10 4.94192e-05
5 *4578:A *149:6 0.000267173
6 *28:10 *149:6 0.000176355
*RES
1 *4161:X *149:6 29.3386 
2 *149:6 *4162:B1 23 
*END

*D_NET *150 0.003863
*CONN
*I *4164:B1 I *D sky130_fd_sc_hd__a21o_1
*I *4163:X O *D sky130_fd_sc_hd__a21o_1
*CAP
1 *4164:B1 0
2 *4163:X 0.00108794
3 *150:16 0.000352917
4 *150:10 0.00144085
5 *150:10 *4346:D 1.52322e-05
6 *150:10 *267:65 0.000227633
7 *150:10 *267:72 6.69899e-05
8 *150:10 *330:10 0.000228558
9 *150:10 *478:6 2.07145e-05
10 *150:10 *478:26 4.47415e-05
11 *150:16 *417:8 8.40494e-05
12 *150:16 *428:10 0.000157042
13 *150:16 *491:24 0
14 *4578:A *150:16 0
15 *28:10 *150:16 0
16 *100:234 *150:10 5.40241e-05
17 *134:97 *150:16 3.04069e-05
18 *134:107 *150:16 5.19016e-05
*RES
1 *4163:X *150:10 39.5093 
2 *150:10 *150:16 37.8921 
3 *150:16 *4164:B1 23 
*END

*D_NET *151 0.00843968
*CONN
*I *4166:B1 I *D sky130_fd_sc_hd__a21o_1
*I *4165:X O *D sky130_fd_sc_hd__a21o_1
*CAP
1 *4166:B1 0.00112618
2 *4165:X 0.000208384
3 *151:12 0.00264548
4 *151:8 0.00172768
5 *4166:B1 *4166:A1 7.06229e-05
6 *4166:B1 *511:10 1.24376e-05
7 *151:8 *4521:A 5.50106e-05
8 *151:12 *567:DIODE 0.000126343
9 *151:12 *259:160 0.00130742
10 *151:12 *299:8 0
11 *151:12 *356:12 0
12 *151:12 *356:65 0
13 *151:12 *356:78 0
14 *151:12 *365:14 0
15 *151:12 *366:8 0
16 *151:12 *373:270 3.95159e-06
17 *151:12 *450:8 0.000396506
18 *151:12 *450:21 0.000401825
19 *151:12 *451:8 6.28228e-05
20 *151:12 *488:66 0.000144915
21 *546:DIODE *4166:B1 7.88926e-05
22 *4166:A2 *4166:B1 5.50106e-05
23 *4167:A2 *151:12 0
24 *17:8 *151:12 0
25 *100:328 *151:12 0
26 *122:32 *151:12 0
27 *133:10 *151:12 0
28 *134:10 *151:12 0
29 *139:10 *151:12 1.62015e-05
*RES
1 *4165:X *151:8 41.48 
2 *151:8 *151:12 49.3029 
3 *151:12 *4166:B1 44.605 
*END

*D_NET *152 0.00629354
*CONN
*I *4168:B1 I *D sky130_fd_sc_hd__a21o_1
*I *4167:X O *D sky130_fd_sc_hd__a21o_1
*CAP
1 *4168:B1 0.000583277
2 *4167:X 0.000295775
3 *152:16 0.0017637
4 *152:8 0.00147619
5 *4168:B1 *340:25 6.17437e-06
6 *152:8 *252:33 0.000112685
7 *152:8 *384:10 5.50106e-05
8 *152:16 *4528:A 0.000576704
9 *152:16 *251:18 8.33469e-05
10 *152:16 *252:12 5.08899e-05
11 *152:16 *252:33 7.75329e-06
12 *152:16 *259:106 0.000169674
13 *152:16 *261:16 0
14 *152:16 *261:84 0
15 *152:16 *384:10 0.000191157
16 *152:16 *458:12 0.000355822
17 *152:16 *473:12 0
18 *152:16 *474:10 9.2383e-05
19 *4168:A2 *4168:B1 0.00010018
20 *100:20 *152:8 5.50106e-05
21 *134:24 *4168:B1 0.000317803
22 *144:138 *152:16 0
*RES
1 *4167:X *152:8 43.3857 
2 *152:8 *152:16 40.8825 
3 *152:16 *4168:B1 36.7439 
*END

*D_NET *153 0.00769351
*CONN
*I *4182:S I *D sky130_fd_sc_hd__mux2_1
*I *4179:S I *D sky130_fd_sc_hd__mux2_1
*I *4173:S I *D sky130_fd_sc_hd__mux2_1
*I *4170:S I *D sky130_fd_sc_hd__mux2_1
*I *4176:S I *D sky130_fd_sc_hd__mux2_1
*I *4185:S I *D sky130_fd_sc_hd__mux2_1
*I *4188:B1 I *D sky130_fd_sc_hd__a22o_1
*I *4169:Y O *D sky130_fd_sc_hd__nand2_2
*CAP
1 *4182:S 0.00024036
2 *4179:S 0
3 *4173:S 5.17057e-05
4 *4170:S 0.000136091
5 *4176:S 6.29113e-05
6 *4185:S 0
7 *4188:B1 0.000176086
8 *4169:Y 8.34192e-05
9 *153:55 0.000804338
10 *153:34 0.00101396
11 *153:30 0.000596973
12 *153:23 0.000262463
13 *153:21 0.000492682
14 *153:8 0.000511827
15 *4170:S *4170:A0 0.000247714
16 *4170:S *362:94 0.000167452
17 *4173:S *362:94 0.000229793
18 *4173:S *373:48 0.000229793
19 *4176:S *4614:A 2.02872e-05
20 *4176:S *504:14 1.24376e-05
21 *4182:S *4163:A1 0.000141954
22 *4182:S *4185:A0 1.22803e-05
23 *4182:S *162:8 0
24 *4182:S *331:8 0
25 *4182:S *332:21 5.21024e-05
26 *4182:S *501:8 0
27 *4188:B1 *4188:B2 5.50049e-05
28 *4188:B1 *456:12 0.000271722
29 *153:21 *4185:A0 0.00017092
30 *153:21 *4188:B2 3.82852e-05
31 *153:21 *373:60 0
32 *153:21 *456:12 2.68751e-05
33 *153:21 *501:8 0
34 *153:30 *373:52 0.000221992
35 *153:34 *4179:A1 2.81406e-06
36 *153:34 *4614:A 2.98648e-05
37 *153:55 *4170:A0 4.92689e-05
38 *153:55 *4576:A 5.3304e-05
39 *153:55 *4614:A 4.42181e-05
40 *153:55 *328:10 0
41 *153:55 *329:10 0.000136486
42 *153:55 *346:10 0.000180889
43 *153:55 *348:10 0
44 *153:55 *504:14 2.30751e-05
45 *7:16 *4176:S 0
46 *7:16 *153:34 3.8805e-05
47 *7:16 *153:55 1.65704e-05
48 *133:93 *153:8 5.79715e-05
49 *142:32 *153:30 0.000229693
50 *142:32 *153:34 2.31797e-05
51 *142:36 *153:30 0.000103647
52 *142:100 *4182:S 2.39911e-05
53 *143:14 *153:8 0.000178517
54 *143:24 *4170:S 2.18409e-05
55 *143:31 *4182:S 0
56 *146:20 *4188:B1 7.06021e-05
57 *146:20 *153:21 7.73405e-05
*RES
1 *4169:Y *153:8 40.0507 
2 *153:8 *4188:B1 42.5364 
3 *153:8 *153:21 6.13143 
4 *153:21 *153:23 15 
5 *153:23 *4185:S 23 
6 *153:23 *153:30 6.815 
7 *153:30 *153:34 4.80571 
8 *153:34 *4176:S 24.6157 
9 *153:34 *153:55 24.7979 
10 *153:55 *4170:S 41.7079 
11 *153:55 *4173:S 40.5271 
12 *153:30 *4179:S 23 
13 *153:21 *4182:S 42.8886 
*END

*D_NET *154 0.00117257
*CONN
*I *4171:B I *D sky130_fd_sc_hd__or2_1
*I *4170:X O *D sky130_fd_sc_hd__mux2_1
*CAP
1 *4171:B 7.23497e-05
2 *4170:X 0.000225404
3 *154:10 0.000297754
4 *154:10 *4170:A0 0
5 *154:10 *259:64 0.000314329
6 *154:10 *327:8 5.67058e-05
7 *154:10 *346:10 0
8 *4174:A *4171:B 9.41704e-05
9 *133:93 *154:10 0.000111852
*RES
1 *4170:X *154:10 42.9921 
2 *154:10 *4171:B 39.0979 
*END

*D_NET *155 0.00102315
*CONN
*I *4172:B1 I *D sky130_fd_sc_hd__o211a_1
*I *4171:X O *D sky130_fd_sc_hd__or2_1
*CAP
1 *4172:B1 0
2 *4171:X 0.000309208
3 *155:10 0.000309208
4 *155:10 *373:60 4.6318e-06
5 *155:10 *514:8 0.000264559
6 *143:24 *155:10 1.14452e-05
7 *143:31 *155:10 0.000124102
8 *146:20 *155:10 0
*RES
1 *4171:X *155:10 42.9093 
2 *155:10 *4172:B1 38 
*END

*D_NET *156 0.00134324
*CONN
*I *4600:A I *D sky130_fd_sc_hd__dlygate4sd3_1
*I *4173:X O *D sky130_fd_sc_hd__mux2_1
*CAP
1 *4600:A 0
2 *4173:X 0.000422405
3 *156:10 0.000422405
4 *156:10 *373:48 0.000444614
5 *156:10 *495:12 4.23714e-05
6 *100:206 *156:10 0
7 *133:114 *156:10 1.14452e-05
*RES
1 *4173:X *156:10 44.815 
2 *156:10 *4600:A 38 
*END

*D_NET *157 0.00214726
*CONN
*I *4601:A I *D sky130_fd_sc_hd__dlygate4sd3_1
*I *4174:X O *D sky130_fd_sc_hd__or2_1
*CAP
1 *4601:A 0
2 *4174:X 0.000725694
3 *157:8 0.000725694
4 *157:8 *4575:A 0.000140935
5 *157:8 *347:6 8.6752e-05
6 *157:8 *348:10 6.07005e-05
7 *157:8 *504:14 0.000188927
8 *4174:A *157:8 5.40337e-05
9 *133:114 *157:8 0.000164528
*RES
1 *4174:X *157:8 36.5057 
2 *157:8 *4601:A 23 
*END

*D_NET *158 0.000182049
*CONN
*I *4576:A I *D sky130_fd_sc_hd__dlygate4sd3_1
*I *4176:X O *D sky130_fd_sc_hd__mux2_1
*CAP
1 *4576:A 5.11419e-05
2 *4176:X 5.11419e-05
3 *4576:A *346:10 2.64616e-05
4 *153:55 *4576:A 5.3304e-05
*RES
1 *4176:X *4576:A 47.1186 
*END

*D_NET *159 0.00117887
*CONN
*I *4577:A I *D sky130_fd_sc_hd__dlygate4sd3_1
*I *4177:X O *D sky130_fd_sc_hd__or2_1
*CAP
1 *4577:A 0
2 *4177:X 0.000416561
3 *159:10 0.000416561
4 *159:10 *4177:B 9.99061e-05
5 *159:10 *305:44 2.54046e-05
6 *159:10 *495:12 6.6869e-05
7 *34:8 *159:10 4.60707e-05
8 *133:134 *159:10 6.07611e-06
9 *133:147 *159:10 0
10 *142:119 *159:10 0.000101421
*RES
1 *4177:X *159:10 44.3386 
2 *159:10 *4577:A 38 
*END

*D_NET *160 0.000728307
*CONN
*I *4571:A I *D sky130_fd_sc_hd__dlygate4sd3_1
*I *4179:X O *D sky130_fd_sc_hd__mux2_1
*CAP
1 *4571:A 8.24008e-05
2 *4179:X 6.16572e-05
3 *160:8 0.000144058
4 *4571:A *362:117 0.000137651
5 *4571:A *514:8 9.47033e-05
6 *160:8 *373:60 0.000140958
7 *143:31 *160:8 6.68793e-05
*RES
1 *4179:X *160:8 39.9057 
2 *160:8 *4571:A 40.0507 
*END

*D_NET *161 0.00099908
*CONN
*I *4572:A I *D sky130_fd_sc_hd__dlygate4sd3_1
*I *4180:X O *D sky130_fd_sc_hd__or2_1
*CAP
1 *4572:A 0.000216091
2 *4180:X 0.000126229
3 *161:8 0.00034232
4 *4572:A *4184:A1 0.000228909
5 *4572:A *4355:D 8.55313e-05
6 *161:8 *4354:CLK 0
7 *161:8 *267:14 0
8 *161:8 *331:8 0
*RES
1 *4180:X *161:8 40.2579 
2 *161:8 *4572:A 42.9093 
*END

*D_NET *162 0.000846969
*CONN
*I *4183:B I *D sky130_fd_sc_hd__or2_1
*I *4182:X O *D sky130_fd_sc_hd__mux2_1
*CAP
1 *4183:B 2.37831e-05
2 *4182:X 0.0002184
3 *162:8 0.000242183
4 *4183:B *362:117 5.67058e-05
5 *162:8 *4185:A0 0
6 *162:8 *331:8 4.21594e-06
7 *162:8 *332:21 0
8 *4182:S *162:8 0
9 *4184:A2 *162:8 3.96156e-05
10 *142:49 *162:8 0.000251522
11 *142:57 *162:8 1.05441e-05
*RES
1 *4182:X *162:8 43.075 
2 *162:8 *4183:B 38.6214 
*END

*D_NET *163 0.00140302
*CONN
*I *4184:B1 I *D sky130_fd_sc_hd__o211a_1
*I *4183:X O *D sky130_fd_sc_hd__or2_1
*CAP
1 *4184:B1 0
2 *4183:X 0.000235987
3 *163:10 0.000235987
4 *163:10 *362:130 0.000306202
5 *4184:A2 *163:10 0.000595473
6 *143:80 *163:10 2.93747e-05
*RES
1 *4183:X *163:10 46.5136 
2 *163:10 *4184:B1 38 
*END

*D_NET *164 0.000685312
*CONN
*I *4186:B I *D sky130_fd_sc_hd__or2_1
*I *4185:X O *D sky130_fd_sc_hd__mux2_1
*CAP
1 *4186:B 0.000212022
2 *4185:X 0.000212022
3 *4186:A *4186:B 2.18506e-05
4 *142:36 *4186:B 0.000239417
*RES
1 *4185:X *4186:B 49.5007 
*END

*D_NET *165 0.000784337
*CONN
*I *4187:B1 I *D sky130_fd_sc_hd__o211a_1
*I *4186:X O *D sky130_fd_sc_hd__or2_1
*CAP
1 *4187:B1 0
2 *4186:X 0.000346591
3 *165:10 0.000346591
4 *165:10 *362:130 0
5 *165:10 *508:10 8.06103e-05
6 *143:88 *165:10 1.05441e-05
*RES
1 *4186:X *165:10 43.2614 
2 *165:10 *4187:B1 38 
*END

*D_NET *166 0.00168764
*CONN
*I *4189:B1 I *D sky130_fd_sc_hd__o211a_1
*I *4188:X O *D sky130_fd_sc_hd__a22o_1
*CAP
1 *4189:B1 0
2 *4188:X 0.000577587
3 *166:8 0.000577587
4 *166:8 *167:8 0.00015163
5 *166:8 *307:23 4.13945e-05
6 *166:8 *360:20 4.66047e-05
7 *4191:A2 *166:8 0.000139346
8 *4445:A *166:8 5.67058e-05
9 *130:44 *166:8 9.67842e-05
*RES
1 *4188:X *166:8 34.4757 
2 *166:8 *4189:B1 23 
*END

*D_NET *167 0.00103763
*CONN
*I *4191:B1 I *D sky130_fd_sc_hd__a31o_1
*I *4189:X O *D sky130_fd_sc_hd__o211a_1
*CAP
1 *4191:B1 0
2 *4189:X 0.000344958
3 *167:8 0.000344958
4 *167:8 *360:20 0.00014196
5 *4191:A2 *167:8 2.18409e-05
6 *4445:A *167:8 3.22879e-05
7 *166:8 *167:8 0.00015163
*RES
1 *4189:X *167:8 30.3121 
2 *167:8 *4191:B1 23 
*END

*D_NET *168 0.0024783
*CONN
*I *4191:A3 I *D sky130_fd_sc_hd__a31o_1
*I *4284:B1 I *D sky130_fd_sc_hd__a31o_1
*I *4190:X O *D sky130_fd_sc_hd__and3_1
*CAP
1 *4191:A3 0
2 *4284:B1 0
3 *4190:X 0.000161558
4 *168:27 0.000518021
5 *168:14 0.000268757
6 *168:6 0.000948336
7 *168:6 *4357:D 4.9054e-06
8 *168:6 *264:117 1.5769e-05
9 *168:6 *264:119 1.94693e-05
10 *168:14 *264:117 9.26098e-05
11 *168:14 *361:8 2.99716e-05
12 *168:14 *373:64 0.000100733
13 *168:14 *508:10 9.28078e-06
14 *168:27 *4169:A 4.23714e-05
15 *168:27 *4357:D 5.12328e-05
16 *168:27 *361:8 0
17 *133:38 *168:14 0
18 *133:42 *168:6 1.4709e-05
19 *133:42 *168:27 0.000125269
20 *143:74 *168:27 6.17437e-06
21 *143:88 *168:14 5.56935e-05
22 *143:103 *168:14 1.34354e-05
*RES
1 *4190:X *168:6 25.0507 
2 *168:6 *168:14 35.7171 
3 *168:14 *4284:B1 23 
4 *168:6 *168:27 38.2443 
5 *168:27 *4191:A3 23 
*END

*D_NET *169 0.000633927
*CONN
*I *4193:C1 I *D sky130_fd_sc_hd__o211a_1
*I *4192:X O *D sky130_fd_sc_hd__or2_1
*CAP
1 *4193:C1 0
2 *4192:X 0.000229597
3 *169:10 0.000229597
4 *169:10 *4192:B 5.37348e-06
5 *169:10 *290:16 3.06338e-05
6 *169:10 *293:10 0
7 *97:88 *169:10 0.000138727
*RES
1 *4192:X *169:10 41.9564 
2 *169:10 *4193:C1 38 
*END

*D_NET *170 0.00102759
*CONN
*I *4195:C1 I *D sky130_fd_sc_hd__o211a_1
*I *4194:X O *D sky130_fd_sc_hd__or2_1
*CAP
1 *4195:C1 0
2 *4194:X 0.000186299
3 *170:8 0.000186299
4 *170:8 *301:8 0.000298257
5 *170:8 *362:219 2.01531e-05
6 *170:8 *479:10 0.000320651
7 *97:128 *170:8 1.59312e-05
*RES
1 *4194:X *170:8 43.075 
2 *170:8 *4195:C1 38 
*END

*D_NET *171 0.000687084
*CONN
*I *4197:C1 I *D sky130_fd_sc_hd__o211a_1
*I *4196:X O *D sky130_fd_sc_hd__or2_1
*CAP
1 *4197:C1 0
2 *4196:X 0.000204348
3 *171:10 0.000204348
4 *171:10 *4192:B 7.05498e-05
5 *171:10 *362:185 6.68793e-05
6 *97:88 *171:10 0.000140958
*RES
1 *4196:X *171:10 41.9564 
2 *171:10 *4197:C1 38 
*END

*D_NET *172 0.000110811
*CONN
*I *4199:C1 I *D sky130_fd_sc_hd__o211a_1
*I *4198:X O *D sky130_fd_sc_hd__or2_1
*CAP
1 *4199:C1 2.79004e-05
2 *4198:X 2.79004e-05
3 *4199:C1 *460:179 5.50106e-05
*RES
1 *4198:X *4199:C1 46.6214 
*END

*D_NET *173 0.000442031
*CONN
*I *4201:C1 I *D sky130_fd_sc_hd__o211a_1
*I *4200:X O *D sky130_fd_sc_hd__or2_1
*CAP
1 *4201:C1 7.32823e-05
2 *4200:X 7.32823e-05
3 *4201:C1 *4200:A 5.51653e-05
4 *4201:C1 *4201:B1 0
5 *4201:C1 *373:359 9.83336e-05
6 *97:62 *4201:C1 0.000141967
*RES
1 *4200:X *4201:C1 49.1382 
*END

*D_NET *174 0.00223351
*CONN
*I *4203:C1 I *D sky130_fd_sc_hd__o211a_1
*I *4202:X O *D sky130_fd_sc_hd__or2_1
*CAP
1 *4203:C1 0.000334657
2 *4202:X 0.000462035
3 *174:8 0.000796692
4 *4203:C1 *4203:B1 5.67058e-05
5 *4203:C1 *4363:CLK 0
6 *4203:C1 *259:213 0
7 *4203:C1 *306:30 4.58924e-05
8 *4203:C1 *362:130 0
9 *4203:C1 *508:10 2.29192e-05
10 *174:8 *306:24 9.68788e-05
11 *45:8 *174:8 0.000361027
12 *97:62 *4203:C1 5.67058e-05
*RES
1 *4202:X *174:8 45.2914 
2 *174:8 *4203:C1 43.9657 
*END

*D_NET *175 0.000601446
*CONN
*I *4205:C1 I *D sky130_fd_sc_hd__o211a_1
*I *4204:X O *D sky130_fd_sc_hd__or2_1
*CAP
1 *4205:C1 2.60602e-05
2 *4204:X 0.000168715
3 *175:10 0.000194775
4 *4205:C1 *259:8 5.67058e-05
5 *175:10 *4205:B1 0
6 *175:10 *259:160 5.50106e-05
7 *4205:A2 *4205:C1 0.00010018
8 *46:8 *175:10 0
*RES
1 *4204:X *175:10 40.8793 
2 *175:10 *4205:C1 39.0979 
*END

*D_NET *176 0.00167604
*CONN
*I *4207:C1 I *D sky130_fd_sc_hd__o211a_1
*I *4206:X O *D sky130_fd_sc_hd__or2_1
*CAP
1 *4207:C1 0
2 *4206:X 0.000470201
3 *176:10 0.000470201
4 *176:10 *4206:A 7.43025e-06
5 *176:10 *4206:B 3.7122e-06
6 *176:10 *373:155 0.000139352
7 *176:10 *373:164 0.000289696
8 *100:291 *176:10 3.83778e-05
9 *100:313 *176:10 0.00021621
10 *100:374 *176:10 4.08641e-05
*RES
1 *4206:X *176:10 47.9429 
2 *176:10 *4207:C1 38 
*END

*D_NET *177 0.012693
*CONN
*I *4221:B I *D sky130_fd_sc_hd__or2_1
*I *4217:B I *D sky130_fd_sc_hd__or2_1
*I *4219:B I *D sky130_fd_sc_hd__or2_1
*I *4225:B I *D sky130_fd_sc_hd__or2_1
*I *4215:B I *D sky130_fd_sc_hd__or2_1
*I *4210:B I *D sky130_fd_sc_hd__or2_1
*I *4229:B I *D sky130_fd_sc_hd__nand2_1
*I *4228:B I *D sky130_fd_sc_hd__or2_1
*I *4213:B I *D sky130_fd_sc_hd__or2_1
*I *4223:B I *D sky130_fd_sc_hd__or2_1
*I *4208:X O *D sky130_fd_sc_hd__and2_2
*CAP
1 *4221:B 0
2 *4217:B 0
3 *4219:B 0
4 *4225:B 8.62323e-05
5 *4215:B 0
6 *4210:B 0
7 *4229:B 0
8 *4228:B 0
9 *4213:B 0.000461726
10 *4223:B 2.57856e-05
11 *4208:X 0.0003677
12 *177:119 0.000766171
13 *177:109 0.00092483
14 *177:100 0.000336576
15 *177:96 0.000403001
16 *177:80 0.0004168
17 *177:72 0.000943706
18 *177:59 0.000593619
19 *177:46 0.000222209
20 *177:27 0.00105495
21 *177:23 0.00132916
22 *177:10 0.000973606
23 *4213:B *178:69 0.000323626
24 *4223:B *455:14 0
25 *4223:B *460:109 1.88491e-05
26 *177:10 *4227:C 0
27 *177:10 *180:19 0
28 *177:10 *180:46 0
29 *177:10 *186:10 5.15848e-05
30 *177:10 *455:14 0
31 *177:10 *460:109 3.35885e-06
32 *177:27 *178:10 0
33 *177:27 *178:12 0
34 *177:27 *178:14 0
35 *177:27 *178:69 7.98362e-05
36 *177:27 *266:79 0
37 *177:27 *457:10 0.000338229
38 *177:27 *488:134 2.71291e-05
39 *177:46 *4229:A 9.41704e-05
40 *177:46 *190:10 2.02872e-05
41 *177:46 *379:10 0.00013118
42 *177:46 *488:134 3.47879e-05
43 *177:59 *4229:A 5.38586e-05
44 *177:59 *190:10 2.49742e-05
45 *177:59 *379:10 0.000121186
46 *177:72 *4214:A1 0.000275687
47 *177:72 *4214:C1 5.50049e-05
48 *177:72 *4463:A 0.000274078
49 *177:72 *379:10 0.000148524
50 *177:72 *476:16 3.53115e-05
51 *177:80 *4210:A 0.000141954
52 *177:80 *4213:A 0
53 *177:80 *4366:CLK 0.000417236
54 *177:80 *4560:A 0
55 *177:80 *179:8 0.00014411
56 *177:80 *266:151 1.14452e-05
57 *177:96 *4220:C1 0
58 *177:96 *180:63 0
59 *177:96 *486:25 6.27951e-05
60 *177:100 *4220:C1 0
61 *177:100 *486:25 0.000167452
62 *177:119 *4203:A1 0
63 *177:119 *4217:A 0.000390182
64 *177:119 *460:175 0
65 *177:119 *461:25 0
66 *177:119 *463:16 4.21594e-06
67 *177:119 *468:14 9.6103e-05
68 *177:119 *468:29 0
69 *48:10 *177:72 0.000102093
70 *53:8 *177:27 0
71 *122:80 *4213:B 0.000137651
*RES
1 *4208:X *177:10 44.1211 
2 *177:10 *4223:B 38.6732 
3 *177:10 *177:23 9.42987 
4 *177:23 *177:27 17.1246 
5 *177:27 *4213:B 46.8864 
6 *177:27 *177:46 18.1279 
7 *177:46 *4228:B 23 
8 *177:46 *177:59 2.36143 
9 *177:59 *4229:B 23 
10 *177:59 *177:72 13.6714 
11 *177:72 *177:80 38.3064 
12 *177:80 *4210:B 23 
13 *177:72 *4215:B 23 
14 *177:23 *177:96 9.59656 
15 *177:96 *177:100 17.2579 
16 *177:100 *4225:B 24.0979 
17 *177:100 *177:109 3.00357 
18 *177:109 *177:119 42.5529 
19 *177:119 *4219:B 23 
20 *177:109 *4217:B 23 
21 *177:96 *4221:B 38 
*END

*D_NET *178 0.0125975
*CONN
*I *4222:A2 I *D sky130_fd_sc_hd__o211a_1
*I *4216:A2 I *D sky130_fd_sc_hd__o211a_1
*I *4212:A2 I *D sky130_fd_sc_hd__o211a_1
*I *4214:A2 I *D sky130_fd_sc_hd__o211a_1
*I *4218:A2 I *D sky130_fd_sc_hd__o211a_1
*I *4224:A2 I *D sky130_fd_sc_hd__o211a_1
*I *4220:A2 I *D sky130_fd_sc_hd__o211a_1
*I *4226:A2 I *D sky130_fd_sc_hd__o211a_1
*I *4209:Y O *D sky130_fd_sc_hd__nand2_2
*CAP
1 *4222:A2 0.000117345
2 *4216:A2 6.44815e-05
3 *4212:A2 0.000378492
4 *4214:A2 0
5 *4218:A2 0.000503727
6 *4224:A2 6.40447e-05
7 *4220:A2 0
8 *4226:A2 0
9 *4209:Y 0.000175354
10 *178:86 0.000475928
11 *178:71 0.000601164
12 *178:69 0.000366401
13 *178:61 0.000685375
14 *178:41 0.000503225
15 *178:24 0.000540736
16 *178:14 0.00118493
17 *178:12 0.000304398
18 *178:10 0.000540851
19 *4212:A2 *4212:C1 0.000261002
20 *4212:A2 *4213:A 0
21 *4216:A2 *4213:A 0.000128401
22 *4216:A2 *290:16 0.000216471
23 *4218:A2 *4218:B1 0.000394099
24 *4218:A2 *4218:C1 5.67058e-05
25 *4218:A2 *180:85 0.000192087
26 *4218:A2 *468:29 0
27 *4218:A2 *468:42 0
28 *4222:A2 *4222:B1 1.14154e-05
29 *4222:A2 *180:46 6.99589e-05
30 *4224:A2 *180:38 3.91386e-05
31 *4224:A2 *455:6 5.3304e-05
32 *178:10 *180:46 1.7992e-05
33 *178:10 *290:16 5.50106e-05
34 *178:12 *180:46 5.44006e-05
35 *178:12 *455:14 2.46345e-05
36 *178:14 *4526:A 0
37 *178:14 *455:14 0.000234084
38 *178:14 *457:10 0
39 *178:24 *180:10 1.14452e-05
40 *178:24 *180:19 5.01986e-05
41 *178:24 *187:6 0.000193575
42 *178:24 *441:6 0.000223692
43 *178:24 *455:14 0.000110922
44 *178:41 *4220:A1 1.14154e-05
45 *178:41 *4221:A 0.000213862
46 *178:41 *4370:CLK 0
47 *178:41 *4372:D 1.74843e-05
48 *178:41 *180:63 5.3304e-05
49 *178:41 *266:16 0.000356597
50 *178:41 *297:21 0.000485446
51 *178:61 *180:46 0.000265098
52 *178:61 *457:10 5.3304e-05
53 *178:69 *4213:A 9.91701e-05
54 *178:69 *266:79 0.000244526
55 *178:69 *290:16 0.000874109
56 *178:86 *4212:C1 1.14452e-05
57 *178:86 *4213:A 0
58 *178:86 *180:85 7.70737e-05
59 *178:86 *180:102 0.000141879
60 *178:86 *182:10 8.05936e-05
61 *178:86 *468:29 0
62 *4213:B *178:69 0.000323626
63 *48:10 *4212:A2 0.000141879
64 *53:8 *178:10 1.83667e-05
65 *53:8 *178:12 5.56203e-05
66 *122:60 *178:10 0
67 *122:80 *178:69 6.17437e-06
68 *133:10 *178:24 3.20914e-05
69 *134:79 *4224:A2 4.9662e-05
70 *177:27 *178:10 0
71 *177:27 *178:12 0
72 *177:27 *178:14 0
73 *177:27 *178:69 7.98362e-05
*RES
1 *4209:Y *178:10 41.2314 
2 *178:10 *178:12 2.61 
3 *178:12 *178:14 3.31429 
4 *178:14 *178:24 38.7414 
5 *178:24 *4226:A2 38 
6 *178:14 *178:41 29.0236 
7 *178:41 *4220:A2 23 
8 *178:12 *4224:A2 39.595 
9 *178:10 *178:61 20.3857 
10 *178:61 *178:69 42.9879 
11 *178:69 *178:71 15 
12 *178:71 *4218:A2 49.8279 
13 *178:71 *178:86 2.96214 
14 *178:86 *4214:A2 38 
15 *178:86 *4212:A2 46.0371 
16 *178:69 *4216:A2 26.0243 
17 *178:61 *4222:A2 25.0714 
*END

*D_NET *179 0.000307441
*CONN
*I *4212:B1 I *D sky130_fd_sc_hd__o211a_1
*I *4210:X O *D sky130_fd_sc_hd__or2_1
*CAP
1 *4212:B1 0
2 *4210:X 5.6606e-05
3 *179:8 5.6606e-05
4 *179:8 *4213:A 2.22183e-05
5 *179:8 *4560:A 2.79004e-05
6 *177:80 *179:8 0.00014411
*RES
1 *4210:X *179:8 39.9057 
2 *179:8 *4212:B1 38 
*END

*D_NET *180 0.0113005
*CONN
*I *4224:B1 I *D sky130_fd_sc_hd__o211a_1
*I *4212:C1 I *D sky130_fd_sc_hd__o211a_1
*I *4214:B1 I *D sky130_fd_sc_hd__o211a_1
*I *4216:B1 I *D sky130_fd_sc_hd__o211a_1
*I *4218:B1 I *D sky130_fd_sc_hd__o211a_1
*I *4220:B1 I *D sky130_fd_sc_hd__o211a_1
*I *4222:B1 I *D sky130_fd_sc_hd__o211a_1
*I *4227:C I *D sky130_fd_sc_hd__and3_1
*I *4226:B1 I *D sky130_fd_sc_hd__o211a_1
*I *4211:Y O *D sky130_fd_sc_hd__nor2_2
*CAP
1 *4224:B1 0
2 *4212:C1 0.000286358
3 *4214:B1 0
4 *4216:B1 0
5 *4218:B1 0.000476056
6 *4220:B1 0
7 *4222:B1 2.0995e-05
8 *4227:C 0.000514815
9 *4226:B1 0
10 *4211:Y 0.000147406
11 *180:102 0.000332176
12 *180:95 0.000219716
13 *180:85 0.000430681
14 *180:70 0.00080276
15 *180:63 0.000292379
16 *180:55 0.000692067
17 *180:46 0.000818409
18 *180:38 0.000763828
19 *180:19 0.000971537
20 *180:10 0.000399582
21 *4212:C1 *4463:A 0
22 *4212:C1 *266:104 9.26098e-05
23 *4218:B1 *4218:C1 5.67058e-05
24 *4218:B1 *468:42 0
25 *4227:C *4375:CLK 4.97911e-05
26 *4227:C *488:12 9.64022e-05
27 *4227:C *488:47 7.55491e-05
28 *180:10 *4373:CLK 9.84851e-05
29 *180:10 *373:216 0.00014196
30 *180:10 *460:109 0.000246757
31 *180:19 *460:109 0.000246739
32 *180:46 *186:10 6.07611e-06
33 *180:46 *455:14 6.07611e-06
34 *180:55 *4222:C1 5.50049e-05
35 *180:63 *570:DIODE 5.20202e-05
36 *180:63 *4220:C1 1.14452e-05
37 *180:63 *4221:A 5.50049e-05
38 *180:63 *4434:A 0
39 *180:63 *185:8 0
40 *180:63 *259:213 0.000245304
41 *180:70 *4434:A 5.41288e-05
42 *180:85 *181:8 1.14452e-05
43 *180:95 *4213:A 0.000232141
44 *180:95 *182:10 2.96051e-05
45 *180:95 *266:151 0
46 *180:95 *468:29 6.07611e-06
47 *180:102 *181:8 0.000130433
48 *4212:A2 *4212:C1 0.000261002
49 *4218:A2 *4218:B1 0.000394099
50 *4218:A2 *180:85 0.000192087
51 *4222:A2 *4222:B1 1.14154e-05
52 *4222:A2 *180:46 6.99589e-05
53 *4224:A2 *180:38 3.91386e-05
54 *4227:A *4227:C 0
55 *48:10 *4212:C1 0.000169674
56 *97:12 *180:19 0
57 *97:22 *180:19 0
58 *122:60 *4227:C 0
59 *122:60 *180:46 0
60 *123:8 *4227:C 0
61 *123:8 *180:19 0
62 *133:10 *180:10 7.20889e-05
63 *133:10 *180:19 2.11887e-05
64 *134:79 *180:38 0.000218503
65 *177:10 *4227:C 0
66 *177:10 *180:19 0
67 *177:10 *180:46 0
68 *177:96 *180:63 0
69 *178:10 *180:46 1.7992e-05
70 *178:12 *180:46 5.44006e-05
71 *178:24 *180:10 1.14452e-05
72 *178:24 *180:19 5.01986e-05
73 *178:41 *180:63 5.3304e-05
74 *178:61 *180:46 0.000265098
75 *178:86 *4212:C1 1.14452e-05
76 *178:86 *180:85 7.70737e-05
77 *178:86 *180:102 0.000141879
*RES
1 *4211:Y *180:10 42.8886 
2 *180:10 *4226:B1 38 
3 *180:10 *180:19 5.42714 
4 *180:19 *4227:C 47.9532 
5 *180:19 *180:38 19.93 
6 *180:38 *180:46 41.6829 
7 *180:46 *4222:B1 23.4971 
8 *180:46 *180:55 4.43286 
9 *180:55 *180:63 36.7529 
10 *180:63 *4220:B1 23 
11 *180:55 *180:70 3.00357 
12 *180:70 *4218:B1 33.0671 
13 *180:70 *180:85 18.6664 
14 *180:85 *180:95 48.3764 
15 *180:95 *4216:B1 23 
16 *180:85 *180:102 1.90571 
17 *180:102 *4214:B1 38 
18 *180:102 *4212:C1 44.7943 
19 *180:38 *4224:B1 23 
*END

*D_NET *181 0.000413349
*CONN
*I *4214:C1 I *D sky130_fd_sc_hd__o211a_1
*I *4213:X O *D sky130_fd_sc_hd__or2_1
*CAP
1 *4214:C1 2.95294e-05
2 *4213:X 7.87035e-05
3 *181:8 0.000108233
4 *177:72 *4214:C1 5.50049e-05
5 *180:85 *181:8 1.14452e-05
6 *180:102 *181:8 0.000130433
*RES
1 *4213:X *181:8 39.9057 
2 *181:8 *4214:C1 38.6214 
*END

*D_NET *182 0.000619724
*CONN
*I *4216:C1 I *D sky130_fd_sc_hd__o211a_1
*I *4215:X O *D sky130_fd_sc_hd__or2_1
*CAP
1 *4216:C1 0
2 *4215:X 0.000169432
3 *182:10 0.000169432
4 *182:10 *4213:A 3.04021e-05
5 *182:10 *4214:A1 0.000140259
6 *178:86 *182:10 8.05936e-05
7 *180:95 *182:10 2.96051e-05
*RES
1 *4215:X *182:10 41.8321 
2 *182:10 *4216:C1 38 
*END

*D_NET *183 0.00270358
*CONN
*I *4539:A I *D sky130_fd_sc_hd__dlygate4sd3_1
*I *4217:X O *D sky130_fd_sc_hd__or2_1
*CAP
1 *4539:A 0.000273986
2 *4217:X 0.000444931
3 *183:8 0.000718918
4 *4539:A *266:151 4.23817e-05
5 *4539:A *294:8 0
6 *4539:A *466:8 5.31444e-05
7 *4539:A *468:29 0.000561365
8 *183:8 *184:8 0.000608856
*RES
1 *4217:X *183:8 44.815 
2 *183:8 *4539:A 45.54 
*END

*D_NET *184 0.00222391
*CONN
*I *4220:C1 I *D sky130_fd_sc_hd__o211a_1
*I *4219:X O *D sky130_fd_sc_hd__or2_1
*CAP
1 *4220:C1 0.000102033
2 *4219:X 0.000324188
3 *184:8 0.000426221
4 *4220:C1 *259:213 7.55698e-05
5 *184:8 *4217:A 0.000264924
6 *184:8 *463:16 0.000108309
7 *184:8 *468:14 0.000163005
8 *4537:A *184:8 0.000139357
9 *177:96 *4220:C1 0
10 *177:100 *4220:C1 0
11 *180:63 *4220:C1 1.14452e-05
12 *183:8 *184:8 0.000608856
*RES
1 *4219:X *184:8 48.6264 
2 *184:8 *4220:C1 40.2579 
*END

*D_NET *185 0.00071116
*CONN
*I *4222:C1 I *D sky130_fd_sc_hd__o211a_1
*I *4221:X O *D sky130_fd_sc_hd__or2_1
*CAP
1 *4222:C1 2.95294e-05
2 *4221:X 0.000298548
3 *185:8 0.000328078
4 *185:8 *486:25 0
5 *180:55 *4222:C1 5.50049e-05
6 *180:63 *185:8 0
*RES
1 *4221:X *185:8 43.075 
2 *185:8 *4222:C1 38.6214 
*END

*D_NET *186 0.000395595
*CONN
*I *4224:C1 I *D sky130_fd_sc_hd__o211a_1
*I *4223:X O *D sky130_fd_sc_hd__or2_1
*CAP
1 *4224:C1 0
2 *4223:X 0.000160297
3 *186:10 0.000160297
4 *186:10 *4223:A 1.73399e-05
5 *186:10 *455:14 0
6 *177:10 *186:10 5.15848e-05
7 *180:46 *186:10 6.07611e-06
*RES
1 *4223:X *186:10 40.8793 
2 *186:10 *4224:C1 38 
*END

*D_NET *187 0.00132514
*CONN
*I *4226:C1 I *D sky130_fd_sc_hd__o211a_1
*I *4225:X O *D sky130_fd_sc_hd__or2_1
*CAP
1 *4226:C1 0
2 *4225:X 0.000238389
3 *187:6 0.000238389
4 *187:6 *4471:A 0.000361027
5 *187:6 *441:6 0.00010018
6 *54:8 *187:6 0.000193575
7 *178:24 *187:6 0.000193575
*RES
1 *4225:X *187:6 31.7207 
2 *187:6 *4226:C1 23 
*END

*D_NET *188 0.00408582
*CONN
*I *4239:A I *D sky130_fd_sc_hd__and3_1
*I *4236:A I *D sky130_fd_sc_hd__and3_1
*I *4230:A I *D sky130_fd_sc_hd__and3_1
*I *4233:B I *D sky130_fd_sc_hd__and3b_1
*I *4227:X O *D sky130_fd_sc_hd__and3_1
*CAP
1 *4239:A 0.000309039
2 *4236:A 0.000242716
3 *4230:A 7.89077e-05
4 *4233:B 4.76307e-05
5 *4227:X 0.000425347
6 *188:32 0.000857308
7 *188:21 0.000456086
8 *188:10 0.000544603
9 *4230:A *192:46 5.50106e-05
10 *4233:B *4233:C 7.53384e-06
11 *4236:A *4234:A 2.32101e-05
12 *4236:A *4238:B 0.000270682
13 *4239:A *4239:C 5.50106e-05
14 *4239:A *195:10 8.62876e-05
15 *4239:A *196:10 0
16 *4239:A *270:10 0
17 *4239:A *270:16 0
18 *188:10 *4375:CLK 5.70419e-05
19 *188:10 *4559:A 2.29192e-05
20 *188:21 *4559:A 3.64189e-05
21 *188:21 *190:10 0
22 *188:21 *192:46 1.83564e-05
23 *188:32 *4140:A 0
24 *188:32 *4559:A 3.46241e-05
25 *188:32 *192:33 6.16531e-05
26 *188:32 *192:46 0.000161418
27 *188:32 *365:14 0
28 *4231:A3 *4230:A 0.000226306
29 *4231:A3 *4233:B 2.80924e-06
30 *4375:D *188:10 4.9054e-06
*RES
1 *4227:X *188:10 43.6343 
2 *188:10 *4233:B 38.6214 
3 *188:10 *188:21 1.55357 
4 *188:21 *4230:A 40.5271 
5 *188:21 *188:32 6.13143 
6 *188:32 *4236:A 41.9771 
7 *188:32 *4239:A 44.0486 
*END

*D_NET *189 0.000740212
*CONN
*I *4230:B I *D sky130_fd_sc_hd__and3_1
*I *4228:X O *D sky130_fd_sc_hd__or2_1
*CAP
1 *4230:B 0
2 *4228:X 0.0001711
3 *189:10 0.0001711
4 *189:10 *4559:A 0
5 *189:10 *190:10 0.000299526
6 *189:10 *269:10 9.84851e-05
*RES
1 *4228:X *189:10 42.0807 
2 *189:10 *4230:B 38 
*END

*D_NET *190 0.00140286
*CONN
*I *4230:C I *D sky130_fd_sc_hd__and3_1
*I *4229:Y O *D sky130_fd_sc_hd__nand2_1
*CAP
1 *4230:C 3.55809e-05
2 *4229:Y 0.00036813
3 *190:10 0.000403711
4 *190:10 *4229:A 0.000132332
5 *190:10 *269:10 8.26569e-05
6 *4231:A3 *4230:C 2.42445e-05
7 *4374:D *4230:C 1.14154e-05
8 *177:46 *190:10 2.02872e-05
9 *177:59 *190:10 2.49742e-05
10 *188:21 *190:10 0
11 *189:10 *190:10 0.000299526
*RES
1 *4229:Y *190:10 45.8714 
2 *190:10 *4230:C 38.7043 
*END

*D_NET *191 0.000361006
*CONN
*I *4233:C I *D sky130_fd_sc_hd__and3b_1
*I *4231:X O *D sky130_fd_sc_hd__a31o_1
*CAP
1 *4233:C 0.00012823
2 *4231:X 0.00012823
3 *4233:C *488:56 0
4 *4231:A3 *4233:C 7.05498e-05
5 *4233:B *4233:C 7.53384e-06
6 *56:10 *4233:C 2.64616e-05
*RES
1 *4231:X *4233:C 48.9 
*END

*D_NET *192 0.0042093
*CONN
*I *4237:A2 I *D sky130_fd_sc_hd__a21o_1
*I *4235:B I *D sky130_fd_sc_hd__nand2_1
*I *4233:A_N I *D sky130_fd_sc_hd__and3b_1
*I *4234:B I *D sky130_fd_sc_hd__or2_1
*I *4238:C I *D sky130_fd_sc_hd__nand3_1
*I *4232:X O *D sky130_fd_sc_hd__and4_1
*CAP
1 *4237:A2 0.000130896
2 *4235:B 0
3 *4233:A_N 0
4 *4234:B 0
5 *4238:C 0.000203569
6 *4232:X 8.35512e-05
7 *192:57 0.000354392
8 *192:46 0.000299181
9 *192:33 4.89681e-05
10 *192:18 0.000334642
11 *192:16 0.000772404
12 *192:8 0.000698166
13 *4238:C *4238:A 0.000132126
14 *4238:C *4238:B 1.76557e-05
15 *192:16 *4234:A 0.000118587
16 *192:16 *4236:B 0.000268873
17 *192:16 *4236:C 5.14746e-06
18 *192:16 *4238:A 0.00026808
19 *192:18 *4238:A 0.000137651
20 *192:46 *4140:A 0
21 *192:57 *4234:A 9.33529e-06
22 *192:57 *194:8 2.5415e-05
23 *192:57 *380:10 4.21594e-06
24 *4230:A *192:46 5.50106e-05
25 *57:8 *192:57 0
26 *188:21 *192:46 1.83564e-05
27 *188:32 *192:33 6.16531e-05
28 *188:32 *192:46 0.000161418
*RES
1 *4232:X *192:8 39.2014 
2 *192:8 *192:16 23.41 
3 *192:16 *192:18 1.57429 
4 *192:18 *4238:C 27.3293 
5 *192:18 *192:33 30.8493 
6 *192:33 *4234:B 23 
7 *192:16 *192:46 35.6964 
8 *192:46 *4233:A_N 23 
9 *192:8 *192:57 19.2879 
10 *192:57 *4235:B 23 
11 *192:57 *4237:A2 25.5686 
*END

*D_NET *193 0.00065352
*CONN
*I *4236:B I *D sky130_fd_sc_hd__and3_1
*I *4234:X O *D sky130_fd_sc_hd__or2_1
*CAP
1 *4236:B 0.000192323
2 *4234:X 0.000192323
3 *192:16 *4236:B 0.000268873
*RES
1 *4234:X *4236:B 49.0036 
*END

*D_NET *194 0.000734328
*CONN
*I *4236:C I *D sky130_fd_sc_hd__and3_1
*I *4235:Y O *D sky130_fd_sc_hd__nand2_1
*CAP
1 *4236:C 0.000201988
2 *4235:Y 4.82822e-05
3 *194:8 0.00025027
4 *4236:C *4234:A 0.000116938
5 *194:8 *4234:A 8.62876e-05
6 *192:16 *4236:C 5.14746e-06
7 *192:57 *194:8 2.5415e-05
*RES
1 *4235:Y *194:8 39.2014 
2 *194:8 *4236:C 40.8689 
*END

*D_NET *195 0.00105802
*CONN
*I *4239:B I *D sky130_fd_sc_hd__and3_1
*I *4237:X O *D sky130_fd_sc_hd__a21o_1
*CAP
1 *4239:B 0
2 *4237:X 0.000430634
3 *195:10 0.000430634
4 *195:10 *4237:A1 8.06804e-06
5 *195:10 *4237:B1 1.94812e-05
6 *195:10 *4441:A 5.50106e-05
7 *195:10 *196:10 2.79004e-05
8 *4239:A *195:10 8.62876e-05
*RES
1 *4237:X *195:10 44.1107 
2 *195:10 *4239:B 38 
*END

*D_NET *196 0.000996115
*CONN
*I *4442:A I *D sky130_fd_sc_hd__dlygate4sd3_1
*I *4238:Y O *D sky130_fd_sc_hd__nand3_1
*CAP
1 *4442:A 0
2 *4238:Y 0.000455754
3 *196:10 0.000455754
4 *196:10 *4238:B 5.67058e-05
5 *196:10 *358:8 0
6 *196:10 *359:8 0
7 *4239:A *196:10 0
8 *195:10 *196:10 2.79004e-05
*RES
1 *4238:Y *196:10 46.1614 
2 *196:10 *4442:A 38 
*END

*D_NET *197 0.000334004
*CONN
*I *4241:B1 I *D sky130_fd_sc_hd__o211a_1
*I *4240:X O *D sky130_fd_sc_hd__or2_1
*CAP
1 *4241:B1 5.96919e-05
2 *4240:X 5.96919e-05
3 *4241:B1 *4240:A 2.98648e-05
4 *4241:B1 *4241:A2 4.37033e-05
5 *122:8 *4241:B1 0.000141052
*RES
1 *4240:X *4241:B1 48.0714 
*END

*D_NET *198 0.00183279
*CONN
*I *4246:A2 I *D sky130_fd_sc_hd__o21ai_1
*I *4244:A_N I *D sky130_fd_sc_hd__and3b_1
*I *4242:X O *D sky130_fd_sc_hd__o31a_1
*CAP
1 *4246:A2 0
2 *4244:A_N 6.18752e-05
3 *4242:X 0.000173836
4 *198:19 0.000139867
5 *198:6 0.000375578
6 *4244:A_N *4516:A 5.3304e-05
7 *198:6 *4242:A1 5.50106e-05
8 *198:6 *4244:B 0.000488848
9 *198:6 *4516:A 0.000216471
10 *198:6 *432:12 2.63049e-05
11 *198:19 *273:10 3.47781e-05
12 *198:19 *273:12 0.000191157
13 *198:19 *432:12 0
14 *4244:C *4244:A_N 1.57571e-05
*RES
1 *4242:X *198:6 29.3386 
2 *198:6 *4244:A_N 24.0979 
3 *198:6 *198:19 32.9621 
4 *198:19 *4246:A2 23 
*END

*D_NET *199 0.00222915
*CONN
*I *4244:B I *D sky130_fd_sc_hd__and3b_1
*I *4243:X O *D sky130_fd_sc_hd__or4_1
*CAP
1 *4244:B 0.000237278
2 *4243:X 0.000254154
3 *199:10 0.000491432
4 *4244:B *4242:A1 2.4754e-05
5 *4244:B *460:50 9.84851e-05
6 *199:10 *4242:A2 0.000141954
7 *199:10 *4242:A3 7.65863e-06
8 *199:10 *460:44 0.00012612
9 *199:10 *460:50 0.000268873
10 *199:10 *488:70 8.95945e-05
11 *198:6 *4244:B 0.000488848
*RES
1 *4243:X *199:10 44.0071 
2 *199:10 *4244:B 44.3593 
*END

*D_NET *200 0.00908462
*CONN
*I *4248:A2 I *D sky130_fd_sc_hd__o21ai_1
*I *4249:A2 I *D sky130_fd_sc_hd__a21oi_1
*I *4250:A2 I *D sky130_fd_sc_hd__a21o_1
*I *4251:B I *D sky130_fd_sc_hd__and2_1
*I *4253:C I *D sky130_fd_sc_hd__and3_1
*I *4256:D I *D sky130_fd_sc_hd__and4_1
*I *4247:A I *D sky130_fd_sc_hd__nor2_1
*I *4245:X O *D sky130_fd_sc_hd__o311a_2
*CAP
1 *4248:A2 0.000286606
2 *4249:A2 9.37145e-05
3 *4250:A2 4.14289e-05
4 *4251:B 2.32701e-05
5 *4253:C 4.52376e-05
6 *4256:D 9.1197e-05
7 *4247:A 0.00013444
8 *4245:X 0.000188773
9 *200:37 0.000649039
10 *200:29 0.000649062
11 *200:27 0.000280975
12 *200:25 0.000455162
13 *200:23 0.000949498
14 *200:6 0.000751015
15 *4247:A *4247:B 5.50106e-05
16 *4248:A2 *279:66 6.70749e-05
17 *4250:A2 *4105:B 0.00014196
18 *4250:A2 *280:12 9.67842e-05
19 *4251:B *259:133 5.3304e-05
20 *4251:B *260:96 5.3304e-05
21 *4253:C *4256:B 8.33635e-05
22 *4256:D *4256:B 3.88766e-05
23 *200:6 *4594:A 3.22879e-05
24 *200:23 *4103:B 0.000197418
25 *200:23 *273:12 0.000181952
26 *200:25 *202:10 0
27 *200:25 *279:66 4.48671e-05
28 *200:27 *510:20 0
29 *200:29 *203:8 0
30 *200:29 *280:8 7.03766e-05
31 *200:37 *4255:A 0.000356718
32 *200:37 *4256:B 1.84234e-05
33 *200:37 *259:133 0
34 *200:37 *386:10 6.88819e-05
35 *4248:B1 *4248:A2 0.00010018
36 *4253:B *4256:D 4.5051e-05
37 *4253:B *200:37 9.84851e-05
38 *4256:C *4256:D 9.84794e-05
39 *61:12 *4247:A 2.62931e-05
40 *61:12 *200:6 7.75305e-05
41 *63:8 *200:37 0
42 *64:8 *200:37 7.28526e-05
43 *108:12 *200:23 0
44 *121:10 *4248:A2 3.46673e-05
45 *134:22 *200:23 0.000385462
46 *134:22 *200:25 0.000508549
47 *134:22 *200:27 0.0001782
48 *134:22 *200:29 0.000236614
49 *134:22 *200:37 0.00063935
50 *134:40 *200:23 5.51222e-05
51 *140:66 *200:23 0.000111852
52 *140:72 *4247:A 0.000181131
53 *140:181 *200:23 3.47781e-05
*RES
1 *4245:X *200:6 26.48 
2 *200:6 *4247:A 26.0243 
3 *200:6 *200:23 25.7714 
4 *200:23 *200:25 6.83571 
5 *200:25 *200:27 2.61 
6 *200:27 *200:29 3.31429 
7 *200:29 *200:37 29.4793 
8 *200:37 *4256:D 25.5271 
9 *200:37 *4253:C 24.4293 
10 *200:29 *4251:B 38.6214 
11 *200:27 *4250:A2 39.5743 
12 *200:25 *4249:A2 39.5743 
13 *200:23 *4248:A2 42.4329 
*END

*D_NET *201 0.000680321
*CONN
*I *4594:A I *D sky130_fd_sc_hd__dlygate4sd3_1
*I *4246:Y O *D sky130_fd_sc_hd__o21ai_1
*CAP
1 *4594:A 1.55343e-05
2 *4246:Y 0.00017362
3 *201:10 0.000189154
4 *201:10 *4246:A1 6.17437e-06
5 *201:10 *4593:A 0.000192022
6 *201:10 *259:173 2.98648e-05
7 *201:10 *273:12 1.22803e-05
8 *61:12 *4594:A 2.93845e-05
9 *200:6 *4594:A 3.22879e-05
*RES
1 *4246:Y *201:10 41.3557 
2 *201:10 *4594:A 38.6214 
*END

*D_NET *202 0.000750625
*CONN
*I *4249:B1 I *D sky130_fd_sc_hd__a21oi_1
*I *4248:Y O *D sky130_fd_sc_hd__o21ai_1
*CAP
1 *4249:B1 0
2 *4248:Y 0.000333857
3 *202:10 0.000333857
4 *202:10 *279:66 2.79004e-05
5 *202:10 *510:14 0
6 *121:10 *202:10 5.50106e-05
7 *200:25 *202:10 0
*RES
1 *4248:Y *202:10 43.6964 
2 *202:10 *4249:B1 38 
*END

*D_NET *203 0.00130428
*CONN
*I *4252:C I *D sky130_fd_sc_hd__and3b_1
*I *4250:X O *D sky130_fd_sc_hd__a21o_1
*CAP
1 *4252:C 0
2 *4250:X 0.00039021
3 *203:8 0.00039021
4 *203:8 *4252:A_N 0.000150878
5 *203:8 *4381:CLK 0
6 *203:8 *204:10 9.80465e-05
7 *203:8 *259:133 0
8 *203:8 *280:8 0
9 *63:8 *203:8 0.000274939
10 *200:29 *203:8 0
*RES
1 *4250:X *203:8 47.6529 
2 *203:8 *4252:C 38 
*END

*D_NET *204 0.00221167
*CONN
*I *4254:A2 I *D sky130_fd_sc_hd__o21ai_1
*I *4252:A_N I *D sky130_fd_sc_hd__and3b_1
*I *4251:X O *D sky130_fd_sc_hd__and2_1
*CAP
1 *4254:A2 0
2 *4252:A_N 0.000203908
3 *4251:X 0.000420383
4 *204:10 0.00062429
5 *4252:A_N *386:10 0
6 *204:10 *260:96 0.000394994
7 *4252:B *4252:A_N 0.00021505
8 *4252:B *204:10 2.96051e-05
9 *140:18 *204:10 7.45175e-05
10 *203:8 *4252:A_N 0.000150878
11 *203:8 *204:10 9.80465e-05
*RES
1 *4251:X *204:10 45.395 
2 *204:10 *4252:A_N 43.8207 
3 *204:10 *4254:A2 38 
*END

*D_NET *205 0.00432178
*CONN
*I *4255:A I *D sky130_fd_sc_hd__nor2_1
*I *4257:A2 I *D sky130_fd_sc_hd__o21ai_1
*I *4253:X O *D sky130_fd_sc_hd__and3_1
*CAP
1 *4255:A 0.000320759
2 *4257:A2 0
3 *4253:X 0.000102213
4 *205:14 0.000401871
5 *205:8 0.000824842
6 *4255:A *4256:B 2.93845e-05
7 *205:14 *259:133 0.000528014
8 *205:14 *260:12 0.000528014
9 *205:14 *281:10 0.000277705
10 *205:14 *281:23 0.000263089
11 *205:14 *381:14 1.76557e-05
12 *205:14 *381:27 0.000320642
13 *4253:B *205:8 3.62714e-05
14 *4253:B *205:14 9.92529e-07
15 *105:8 *205:14 5.94125e-05
16 *105:14 *205:14 0.0002542
17 *134:22 *4255:A 0
18 *134:22 *205:8 0
19 *200:37 *4255:A 0.000356718
*RES
1 *4253:X *205:8 39.3775 
2 *205:8 *205:14 30.5875 
3 *205:14 *4257:A2 23 
4 *205:8 *4255:A 44.3282 
*END

*D_NET *206 0.000484626
*CONN
*I *4469:A I *D sky130_fd_sc_hd__dlygate4sd3_1
*I *4254:Y O *D sky130_fd_sc_hd__o21ai_1
*CAP
1 *4469:A 0.000124321
2 *4254:Y 0.000124321
3 *4469:A *4254:A1 5.50106e-05
4 *4469:A *4398:CLK 3.91386e-05
5 *4469:A *259:116 0.000141835
*RES
1 *4254:Y *4469:A 49.19 
*END

*D_NET *207 0.0066913
*CONN
*I *4260:A2 I *D sky130_fd_sc_hd__o21ai_1
*I *4265:D I *D sky130_fd_sc_hd__and4_1
*I *4262:C I *D sky130_fd_sc_hd__and3_1
*I *4259:B I *D sky130_fd_sc_hd__and2_1
*I *4258:A I *D sky130_fd_sc_hd__nor2_1
*I *4256:X O *D sky130_fd_sc_hd__and4_1
*CAP
1 *4260:A2 0.00011766
2 *4265:D 0.000413147
3 *4262:C 2.07935e-05
4 *4259:B 0.000128608
5 *4258:A 0
6 *4256:X 0.000761173
7 *207:36 0.000714956
8 *207:23 0.000740618
9 *207:19 0.000685636
10 *207:10 0.000323149
11 *207:8 0.000847341
12 *4259:B *4259:A 7.52566e-05
13 *4259:B *4261:B 3.93141e-05
14 *4260:A2 *4259:A 0.000103647
15 *4260:A2 *4260:A1 3.22879e-05
16 *4260:A2 *210:8 0.000272383
17 *4260:A2 *283:10 2.61699e-05
18 *4260:A2 *283:23 4.21594e-06
19 *4265:D *212:10 6.64589e-05
20 *4265:D *213:8 3.17634e-05
21 *4265:D *283:34 0
22 *4265:D *376:6 0.000141954
23 *4265:D *410:20 1.61305e-05
24 *207:10 *260:43 4.83778e-05
25 *207:19 *260:24 0
26 *207:19 *260:43 6.88819e-05
27 *207:19 *283:10 2.29192e-05
28 *207:19 *383:8 5.51058e-05
29 *207:23 *4259:A 0.00048285
30 *207:36 *4386:CLK 0
31 *207:36 *209:23 8.62876e-05
32 *207:36 *260:24 0
33 *207:36 *283:23 0
34 *207:36 *410:20 6.68587e-05
35 *4263:B1 *4265:D 0.000135999
36 *4263:B1 *207:36 8.51432e-05
37 *4269:B1 *4265:D 7.03869e-05
38 *4496:A *4262:C 5.83345e-06
39 *66:10 *207:36 0
*RES
1 *4256:X *207:8 48.15 
2 *207:8 *207:10 1.90571 
3 *207:10 *4258:A 38 
4 *207:10 *207:19 5.075 
5 *207:19 *207:23 20.3857 
6 *207:23 *4259:B 25.4236 
7 *207:23 *207:36 20.7793 
8 *207:36 *4262:C 38.2279 
9 *207:36 *4265:D 46.3064 
10 *207:19 *4260:A2 42.205 
*END

*D_NET *208 0.000976019
*CONN
*I *4466:A I *D sky130_fd_sc_hd__dlygate4sd3_1
*I *4257:Y O *D sky130_fd_sc_hd__o21ai_1
*CAP
1 *4466:A 9.0046e-05
2 *4257:Y 0.000333763
3 *208:8 0.000423809
4 *4466:A *434:20 0.000128401
5 *208:8 *282:19 0
6 *208:8 *381:14 0
7 *208:8 *383:8 0
*RES
1 *4257:Y *208:8 44.1314 
2 *208:8 *4466:A 40.5271 
*END

*D_NET *209 0.00106326
*CONN
*I *4263:A2 I *D sky130_fd_sc_hd__o21ai_1
*I *4261:A I *D sky130_fd_sc_hd__nor2_1
*I *4259:X O *D sky130_fd_sc_hd__and2_1
*CAP
1 *4263:A2 0
2 *4261:A 0.000120346
3 *4259:X 0
4 *209:23 0.000254662
5 *209:4 0.000375008
6 *4261:A *4261:B 7.69576e-05
7 *209:23 *4259:A 1.14876e-05
8 *209:23 *4261:B 0.000120857
9 *209:23 *260:24 0
10 *66:10 *4261:A 1.76557e-05
11 *207:36 *209:23 8.62876e-05
*RES
1 *4259:X *209:4 23 
2 *209:4 *4261:A 25.9207 
3 *209:4 *209:23 34.205 
4 *209:23 *4263:A2 23 
*END

*D_NET *210 0.000925956
*CONN
*I *4510:A I *D sky130_fd_sc_hd__dlygate4sd3_1
*I *4260:Y O *D sky130_fd_sc_hd__o21ai_1
*CAP
1 *4510:A 0
2 *4260:Y 0.000245057
3 *210:8 0.000245057
4 *210:8 *4259:A 6.32777e-05
5 *4260:A2 *210:8 0.000272383
6 *140:108 *210:8 0.00010018
*RES
1 *4260:Y *210:8 28.8829 
2 *210:8 *4510:A 23 
*END

*D_NET *211 0.001888
*CONN
*I *4266:A2 I *D sky130_fd_sc_hd__o21ai_1
*I *4264:A I *D sky130_fd_sc_hd__nor2_1
*I *4262:X O *D sky130_fd_sc_hd__and3_1
*CAP
1 *4266:A2 0
2 *4264:A 0.000141709
3 *4262:X 0
4 *211:21 0.000373823
5 *211:4 0.000515532
6 *211:21 *4262:B 0.00026808
7 *211:21 *4265:B 0
8 *211:21 *410:8 0.000185434
9 *211:21 *410:14 5.97178e-05
10 *4496:A *4264:A 9.58714e-05
11 *4496:A *211:21 0.000212168
12 *140:108 *211:21 3.5664e-05
*RES
1 *4262:X *211:4 23 
2 *211:4 *4264:A 25.4236 
3 *211:4 *211:21 38.845 
4 *211:21 *4266:A2 23 
*END

*D_NET *212 0.0018841
*CONN
*I *4495:A I *D sky130_fd_sc_hd__dlygate4sd3_1
*I *4263:Y O *D sky130_fd_sc_hd__o21ai_1
*CAP
1 *4495:A 7.13206e-05
2 *4263:Y 0.000431809
3 *212:10 0.00050313
4 *4495:A *214:8 0.000310647
5 *212:10 *283:23 4.07506e-05
6 *212:10 *283:34 3.35885e-05
7 *212:10 *410:20 0.000110373
8 *4263:B1 *212:10 5.37348e-06
9 *4265:D *212:10 6.64589e-05
10 *140:132 *4495:A 0.000310647
*RES
1 *4263:Y *212:10 44.7736 
2 *212:10 *4495:A 41.48 
*END

*D_NET *213 0.00569469
*CONN
*I *4274:D I *D sky130_fd_sc_hd__and4_1
*I *4271:C I *D sky130_fd_sc_hd__and3_1
*I *4268:B I *D sky130_fd_sc_hd__and2_1
*I *4269:A2 I *D sky130_fd_sc_hd__o21ai_1
*I *4267:A I *D sky130_fd_sc_hd__nor2_1
*I *4265:X O *D sky130_fd_sc_hd__and4_1
*CAP
1 *4274:D 0.000174523
2 *4271:C 6.42707e-05
3 *4268:B 0.00015922
4 *4269:A2 4.24857e-05
5 *4267:A 0.000435708
6 *4265:X 0
7 *213:49 0.000652253
8 *213:19 0.000319646
9 *213:8 0.000914435
10 *213:4 0.000774246
11 *4267:A *285:10 0
12 *4267:A *285:23 0
13 *4267:A *377:8 0
14 *4267:A *378:8 0
15 *4268:B *4269:A1 0.000272383
16 *4268:B *286:6 4.95081e-05
17 *4269:A2 *286:6 5.50106e-05
18 *4271:C *4272:A2 1.80307e-05
19 *4274:D *4274:C 0.000366108
20 *4274:D *221:10 0
21 *4274:D *391:25 0.000219873
22 *213:8 *376:6 3.22879e-05
23 *213:19 *285:23 0
24 *213:49 *4107:D_N 8.92738e-05
25 *213:49 *4120:D_N 0.000216721
26 *213:49 *4265:B 3.70187e-05
27 *213:49 *4274:C 0.00014504
28 *213:49 *275:10 0
29 *213:49 *275:12 0
30 *213:49 *286:25 9.3813e-05
31 *213:49 *286:31 0.000169683
32 *213:49 *376:6 6.9805e-05
33 *213:49 *391:25 3.70094e-05
34 *213:49 *419:10 0
35 *4263:B1 *4267:A 0
36 *4265:D *213:8 3.17634e-05
37 *4269:B1 *4267:A 0
38 *4269:B1 *4268:B 0.000187129
39 *68:10 *4267:A 6.74483e-05
*RES
1 *4265:X *213:4 23 
2 *213:4 *213:8 21.3386 
3 *213:8 *4267:A 46.5964 
4 *213:8 *213:19 1.90571 
5 *213:19 *4269:A2 38.6214 
6 *213:19 *4268:B 42.9714 
7 *213:4 *213:49 25.875 
8 *213:49 *4271:C 38.7043 
9 *213:49 *4274:D 43.075 
*END

*D_NET *214 0.00113298
*CONN
*I *4461:A I *D sky130_fd_sc_hd__dlygate4sd3_1
*I *4266:Y O *D sky130_fd_sc_hd__o21ai_1
*CAP
1 *4461:A 0
2 *4266:Y 0.000270339
3 *214:8 0.000270339
4 *214:8 *411:10 9.75779e-05
5 *4495:A *214:8 0.000310647
6 *140:132 *214:8 0.000184075
*RES
1 *4266:Y *214:8 29.3593 
2 *214:8 *4461:A 23 
*END

*D_NET *215 0.00179303
*CONN
*I *4272:A2 I *D sky130_fd_sc_hd__o21ai_1
*I *4270:A I *D sky130_fd_sc_hd__nor2_1
*I *4268:X O *D sky130_fd_sc_hd__and2_1
*CAP
1 *4272:A2 0.000338179
2 *4270:A 0.000195396
3 *4268:X 0.000243557
4 *215:10 0.000533576
5 *215:8 0.000243557
6 *4272:A2 *4272:A1 5.67058e-05
7 *4272:A2 *217:10 9.36522e-05
8 *215:8 *4274:C 0
9 *215:8 *216:8 7.03766e-05
10 *215:8 *286:31 0
11 *215:8 *419:10 0
12 *215:8 *420:10 0
13 *4271:C *4272:A2 1.80307e-05
14 *69:8 *215:8 0
*RES
1 *4268:X *215:8 42.7229 
2 *215:8 *215:10 15 
3 *215:10 *4270:A 26.6457 
4 *215:10 *4272:A2 29.815 
*END

*D_NET *216 0.000622571
*CONN
*I *4503:A I *D sky130_fd_sc_hd__dlygate4sd3_1
*I *4269:Y O *D sky130_fd_sc_hd__o21ai_1
*CAP
1 *4503:A 0.000184822
2 *4269:Y 8.63323e-05
3 *216:8 0.000271154
4 *4503:A *419:10 6.17437e-06
5 *4503:A *420:10 3.7122e-06
6 *216:8 *421:8 0
7 *215:8 *216:8 7.03766e-05
*RES
1 *4269:Y *216:8 39.9057 
2 *216:8 *4503:A 41.0036 
*END

*D_NET *217 0.00112164
*CONN
*I *4275:A2 I *D sky130_fd_sc_hd__o21ai_1
*I *4273:A I *D sky130_fd_sc_hd__nor2_1
*I *4271:X O *D sky130_fd_sc_hd__and3_1
*CAP
1 *4275:A2 0.000210023
2 *4273:A 0
3 *4271:X 0.000246366
4 *217:10 0.00045639
5 *4275:A2 *4274:C 0
6 *4275:A2 *391:14 0
7 *217:10 *4274:C 0
8 *217:10 *393:8 3.56537e-05
9 *4272:A2 *217:10 9.36522e-05
10 *70:10 *217:10 2.5415e-05
11 *140:169 *4275:A2 5.41385e-05
*RES
1 *4271:X *217:10 42.4329 
2 *217:10 *4273:A 38 
3 *217:10 *4275:A2 41.3557 
*END

*D_NET *218 0.000449484
*CONN
*I *4476:A I *D sky130_fd_sc_hd__dlygate4sd3_1
*I *4272:Y O *D sky130_fd_sc_hd__o21ai_1
*CAP
1 *4476:A 6.7348e-05
2 *4272:Y 8.27641e-05
3 *218:8 0.000150112
4 *4476:A *274:8 7.88828e-05
5 *218:8 *275:10 7.03766e-05
6 *218:8 *391:25 0
*RES
1 *4272:Y *218:8 39.9057 
2 *218:8 *4476:A 39.5743 
*END

*D_NET *219 0.00444048
*CONN
*I *4276:A I *D sky130_fd_sc_hd__nor2_1
*I *4279:A2 I *D sky130_fd_sc_hd__a21o_1
*I *4277:A2 I *D sky130_fd_sc_hd__o21ai_1
*I *4280:C I *D sky130_fd_sc_hd__nand3_1
*I *4278:A2 I *D sky130_fd_sc_hd__a21oi_1
*I *4274:X O *D sky130_fd_sc_hd__and4_1
*CAP
1 *4276:A 0.000302077
2 *4279:A2 9.08064e-05
3 *4277:A2 0
4 *4280:C 0.000231738
5 *4278:A2 2.14194e-05
6 *4274:X 1.00124e-05
7 *219:39 0.000518263
8 *219:19 0.000344092
9 *219:17 0.000352991
10 *219:6 0.000146689
11 *4276:A *275:10 0
12 *4276:A *276:10 0.000177899
13 *4276:A *344:10 0.000169683
14 *4278:A2 *4430:A 0
15 *4279:A2 *4279:A1 9.67842e-05
16 *4280:C *4280:B 0.000576407
17 *219:6 *262:8 3.22879e-05
18 *219:17 *262:6 0.000168821
19 *219:17 *262:8 9.91701e-05
20 *219:19 *4280:B 1.14452e-05
21 *219:19 *344:14 0.000207507
22 *219:39 *275:10 0
23 *219:39 *344:10 2.55642e-05
24 *219:39 *344:12 0.00010394
25 *219:39 *344:14 8.72173e-05
26 *4598:A *4276:A 2.82307e-05
27 *71:8 *4276:A 0
28 *72:8 *219:17 0.000355023
29 *140:89 *4280:C 0.000102365
30 *140:89 *219:19 1.22803e-05
31 *140:169 *4278:A2 5.90675e-06
32 *140:169 *219:6 3.22879e-05
33 *140:169 *219:17 6.51746e-05
34 *140:169 *219:19 6.4393e-05
*RES
1 *4274:X *219:6 23.6214 
2 *219:6 *4278:A2 23.4971 
3 *219:6 *219:17 20.3857 
4 *219:17 *219:19 2.96214 
5 *219:19 *4280:C 45.5193 
6 *219:19 *4277:A2 38 
7 *219:17 *219:39 2.96214 
8 *219:39 *4279:A2 39.5743 
9 *219:39 *4276:A 45.7471 
*END

*D_NET *220 0.000857186
*CONN
*I *4454:A I *D sky130_fd_sc_hd__dlygate4sd3_1
*I *4275:Y O *D sky130_fd_sc_hd__o21ai_1
*CAP
1 *4454:A 0.000107513
2 *4275:Y 0.000208448
3 *220:8 0.000315961
4 *220:8 *262:55 0
5 *220:8 *369:10 0
6 *220:8 *371:10 0.000225265
*RES
1 *4275:Y *220:8 42.7229 
2 *220:8 *4454:A 39.5743 
*END

*D_NET *221 0.00104998
*CONN
*I *4278:B1 I *D sky130_fd_sc_hd__a21oi_1
*I *4277:Y O *D sky130_fd_sc_hd__o21ai_1
*CAP
1 *4278:B1 0
2 *4277:Y 0.000359674
3 *221:10 0.000359674
4 *221:10 *274:8 0.000141052
5 *221:10 *275:10 0.000160191
6 *4274:D *221:10 0
7 *140:81 *221:10 2.93845e-05
*RES
1 *4277:Y *221:10 43.7379 
2 *221:10 *4278:B1 38 
*END

*D_NET *222 0.000655992
*CONN
*I *4281:B I *D sky130_fd_sc_hd__and3_1
*I *4279:X O *D sky130_fd_sc_hd__a21o_1
*CAP
1 *4281:B 0
2 *4279:X 0.000260039
3 *222:10 0.000260039
4 *222:10 *262:73 4.96264e-05
5 *222:10 *344:14 0
6 *222:10 *400:14 8.62876e-05
7 *222:10 *400:27 0
8 *4598:A *222:10 0
*RES
1 *4279:X *222:10 42.64 
2 *222:10 *4281:B 38 
*END

*D_NET *223 0.000571487
*CONN
*I *4485:A I *D sky130_fd_sc_hd__dlygate4sd3_1
*I *4280:Y O *D sky130_fd_sc_hd__nand3_1
*CAP
1 *4485:A 5.33987e-05
2 *4280:Y 8.85601e-05
3 *223:8 0.000141959
4 *223:8 *400:27 0.000138718
5 *73:8 *4485:A 7.44257e-05
6 *140:72 *4485:A 7.44257e-05
*RES
1 *4280:Y *223:8 39.9057 
2 *223:8 *4485:A 39.5743 
*END

*D_NET *224 0.00075922
*CONN
*I *4286:B I *D sky130_fd_sc_hd__nor2_1
*I *4285:X O *D sky130_fd_sc_hd__a2111o_1
*CAP
1 *4286:B 4.66348e-05
2 *4285:X 0.000141588
3 *224:10 0.000188222
4 *4286:B *429:14 3.86588e-05
5 *224:10 *265:12 0.000164282
6 *224:10 *265:51 2.93747e-05
7 *100:123 *224:10 0
8 *100:127 *224:10 0
9 *102:10 *224:10 5.45887e-05
10 *141:10 *4286:B 9.58714e-05
*RES
1 *4285:X *224:10 40.8793 
2 *224:10 *4286:B 39.0979 
*END

*D_NET *225 0.00867387
*CONN
*I *4293:B I *D sky130_fd_sc_hd__and3b_1
*I *4298:A I *D sky130_fd_sc_hd__and2_1
*I *4296:B I *D sky130_fd_sc_hd__and3b_1
*I *4290:B I *D sky130_fd_sc_hd__and3b_1
*I *4286:Y O *D sky130_fd_sc_hd__nor2_1
*CAP
1 *4293:B 0.000277096
2 *4298:A 0
3 *4296:B 0
4 *4290:B 0.000725081
5 *4286:Y 0.000636655
6 *225:48 0.000764449
7 *225:33 0.00144342
8 *225:12 0.00142155
9 *225:10 0.000931245
10 *4290:B *4290:A_N 0.00014196
11 *4290:B *4290:C 4.04598e-06
12 *4290:B *4402:CLK 0.000111215
13 *4290:B *230:14 2.92149e-05
14 *4290:B *265:18 2.64616e-05
15 *4293:B *4137:D_N 1.43274e-05
16 *4293:B *4293:A_N 7.64199e-05
17 *225:10 *229:10 0
18 *225:10 *230:14 2.85783e-05
19 *225:10 *230:35 2.49836e-05
20 *225:10 *233:8 0
21 *225:10 *265:12 0
22 *225:10 *310:22 0.000266179
23 *225:10 *362:47 0.000111852
24 *225:10 *372:21 0
25 *225:10 *429:14 3.90643e-05
26 *225:12 *230:14 7.57281e-06
27 *225:33 *4297:B 0
28 *225:33 *231:10 2.98663e-05
29 *225:33 *310:40 2.76611e-06
30 *225:48 *4402:CLK 7.73389e-05
31 *225:48 *233:16 0.000359332
32 *574:DIODE *225:48 0.000558176
33 *4138:A *225:10 0
34 *4401:D *4290:B 9.8971e-06
35 *4402:D *225:48 3.54023e-05
36 *4458:A *225:10 2.64616e-05
37 *4513:A *225:48 0.000248934
38 *23:8 *225:10 8.50366e-05
39 *80:8 *225:48 0.000103647
40 *124:8 *225:10 0
41 *135:8 *225:10 0
42 *141:10 *225:10 5.56356e-05
*RES
1 *4286:Y *225:10 49.6 
2 *225:10 *225:12 0.321071 
3 *225:12 *4290:B 48.2225 
4 *225:12 *225:33 33.1976 
5 *225:33 *4296:B 23 
6 *225:33 *225:48 47.3586 
7 *225:48 *4298:A 23 
8 *225:10 *4293:B 41.48 
*END

*D_NET *226 0.00555282
*CONN
*I *4337:B1 I *D sky130_fd_sc_hd__o221a_1
*I *4289:C I *D sky130_fd_sc_hd__and3_1
*I *4300:C I *D sky130_fd_sc_hd__or3_1
*I *4288:A2 I *D sky130_fd_sc_hd__a21o_1
*I *4287:X O *D sky130_fd_sc_hd__or2_1
*CAP
1 *4337:B1 7.72492e-05
2 *4289:C 0
3 *4300:C 0
4 *4288:A2 0
5 *4287:X 8.91408e-05
6 *226:57 0.000922146
7 *226:32 0.000946622
8 *226:21 0.00032548
9 *226:12 0.000111468
10 *226:6 0.000424362
11 *4337:B1 *351:22 7.34336e-06
12 *226:6 *4511:A 0.000185428
13 *226:12 *235:10 8.76088e-05
14 *226:12 *313:10 0
15 *226:21 *4300:A 7.42621e-05
16 *226:21 *4511:A 5.50106e-05
17 *226:21 *235:10 0.000315857
18 *226:21 *367:14 0
19 *226:21 *367:22 1.73274e-05
20 *226:21 *427:12 0.000173278
21 *226:32 *367:22 0.000114276
22 *226:57 *259:53 0.000136512
23 *226:57 *265:10 0.000193757
24 *226:57 *265:12 0.000213484
25 *226:57 *362:47 0
26 *226:57 *362:70 9.58714e-05
27 *226:57 *367:14 0.000153455
28 *226:57 *367:22 8.25698e-05
29 *226:57 *375:10 0.000167443
30 *4337:A2 *4337:B1 0.000145462
31 *4337:C1 *4337:B1 5.50049e-05
32 *4507:A *226:57 4.9662e-05
33 *101:10 *226:57 0.000171618
34 *141:18 *226:57 0.000161121
*RES
1 *4287:X *226:6 25.0507 
2 *226:6 *226:12 32.61 
3 *226:12 *4288:A2 23 
4 *226:6 *226:21 7.18786 
5 *226:21 *4300:C 23 
6 *226:21 *226:32 2.38214 
7 *226:32 *4289:C 23 
8 *226:32 *226:57 49.1814 
9 *226:57 *4337:B1 25.0714 
*END

*D_NET *227 0.000661391
*CONN
*I *4498:A I *D sky130_fd_sc_hd__dlygate4sd3_1
*I *4288:X O *D sky130_fd_sc_hd__a21o_1
*CAP
1 *4498:A 6.34361e-05
2 *4288:X 0.000234069
3 *227:8 0.000297505
4 *227:8 *235:10 6.63801e-05
5 *227:8 *415:8 0
6 *77:8 *227:8 0
*RES
1 *4288:X *227:8 42.7229 
2 *227:8 *4498:A 39.0979 
*END

*D_NET *228 0.00390786
*CONN
*I *4290:A_N I *D sky130_fd_sc_hd__and3b_1
*I *4292:B I *D sky130_fd_sc_hd__and2_1
*I *4295:C I *D sky130_fd_sc_hd__and3_1
*I *4291:B I *D sky130_fd_sc_hd__or2_1
*I *4289:X O *D sky130_fd_sc_hd__and3_1
*CAP
1 *4290:A_N 5.53719e-05
2 *4292:B 0
3 *4295:C 0
4 *4291:B 0
5 *4289:X 0.000323537
6 *228:33 0.000320522
7 *228:21 0.000363205
8 *228:14 0.000709448
9 *228:8 0.00104567
10 *228:8 *265:12 0
11 *228:8 *265:18 0
12 *228:8 *309:12 7.03766e-05
13 *228:14 *4291:A 0.000100805
14 *228:14 *229:10 0.000131009
15 *228:21 *4291:A 0.000146822
16 *228:33 *4291:A 4.5815e-05
17 *228:33 *232:14 0.000151537
18 *228:33 *310:40 4.6318e-06
19 *228:33 *431:8 5.3304e-05
20 *228:33 *431:28 4.06408e-05
21 *4132:A3 *228:8 6.07611e-06
22 *4290:B *4290:A_N 0.00014196
23 *77:8 *228:8 0.000100724
24 *78:8 *228:8 0
25 *78:8 *228:14 0
26 *100:127 *228:8 0
27 *130:68 *228:8 9.64022e-05
*RES
1 *4289:X *228:8 45.1879 
2 *228:8 *228:14 27.9879 
3 *228:14 *4291:B 23 
4 *228:14 *228:21 1.57429 
5 *228:21 *228:33 36.7943 
6 *228:33 *4295:C 23 
7 *228:21 *4292:B 23 
8 *228:8 *4290:A_N 39.5743 
*END

*D_NET *229 0.00133045
*CONN
*I *4293:C I *D sky130_fd_sc_hd__and3b_1
*I *4291:X O *D sky130_fd_sc_hd__or2_1
*CAP
1 *4293:C 0
2 *4291:X 0.000457748
3 *229:10 0.000457748
4 *229:10 *230:14 0
5 *229:10 *265:12 3.70187e-05
6 *229:10 *265:18 0.000219882
7 *229:10 *310:22 0
8 *78:8 *229:10 2.70469e-05
9 *225:10 *229:10 0
10 *228:14 *229:10 0.000131009
*RES
1 *4291:X *229:10 45.9543 
2 *229:10 *4293:C 38 
*END

*D_NET *230 0.00405029
*CONN
*I *4294:B I *D sky130_fd_sc_hd__or2_1
*I *4293:A_N I *D sky130_fd_sc_hd__and3b_1
*I *4292:X O *D sky130_fd_sc_hd__and2_1
*CAP
1 *4294:B 0
2 *4293:A_N 8.65261e-05
3 *4292:X 0.000402431
4 *230:35 0.000935896
5 *230:14 0.00142485
6 *4293:A_N *4137:D_N 3.18142e-05
7 *4293:A_N *310:22 0.000139974
8 *230:14 *4291:A 0.000101764
9 *230:14 *232:14 0
10 *230:14 *310:14 0
11 *230:35 *4137:A 5.56279e-05
12 *230:35 *4137:B 2.25419e-05
13 *230:35 *4294:A 0.000185087
14 *230:35 *310:14 4.18667e-05
15 *230:35 *310:22 0.000100069
16 *230:35 *372:6 0.00011246
17 *230:35 *422:6 1.41077e-05
18 *230:35 *422:18 8.65442e-05
19 *527:DIODE *230:35 0.000141954
20 *4290:B *230:14 2.92149e-05
21 *4293:B *4293:A_N 7.64199e-05
22 *225:10 *230:14 2.85783e-05
23 *225:10 *230:35 2.49836e-05
24 *225:12 *230:14 7.57281e-06
25 *229:10 *230:14 0
*RES
1 *4292:X *230:14 44.5871 
2 *230:14 *4293:A_N 40.5271 
3 *230:14 *230:35 29.9971 
4 *230:35 *4294:B 23 
*END

*D_NET *231 0.00227485
*CONN
*I *4296:C I *D sky130_fd_sc_hd__and3b_1
*I *4294:X O *D sky130_fd_sc_hd__or2_1
*CAP
1 *4296:C 5.93961e-05
2 *4294:X 0.000749546
3 *231:10 0.000808942
4 *4296:C *4402:CLK 9.84794e-05
5 *231:10 *4137:B 0.000420201
6 *231:10 *4294:A 8.92783e-05
7 *231:10 *310:40 0
8 *231:10 *422:31 0
9 *4402:D *4296:C 1.91381e-05
10 *225:33 *231:10 2.98663e-05
*RES
1 *4294:X *231:10 48.9786 
2 *231:10 *4296:C 39.595 
*END

*D_NET *232 0.00268952
*CONN
*I *4297:B I *D sky130_fd_sc_hd__xor2_1
*I *4296:A_N I *D sky130_fd_sc_hd__and3b_1
*I *4295:X O *D sky130_fd_sc_hd__and3_1
*CAP
1 *4297:B 0.000476529
2 *4296:A_N 0
3 *4295:X 0.000473142
4 *232:14 0.000949671
5 *4297:B *310:14 0.000132142
6 *4297:B *310:40 3.70094e-05
7 *4297:B *367:64 6.48049e-05
8 *4297:B *372:21 0.000100413
9 *4297:B *422:18 0
10 *232:14 *310:40 8.50169e-05
11 *527:DIODE *4297:B 0
12 *528:DIODE *4297:B 1.59094e-05
13 *100:135 *4297:B 1.21972e-05
14 *135:8 *4297:B 0.000191148
15 *225:33 *4297:B 0
16 *228:33 *232:14 0.000151537
17 *230:14 *232:14 0
*RES
1 *4295:X *232:14 45.7679 
2 *232:14 *4296:A_N 38 
3 *232:14 *4297:B 46.8036 
*END

*D_NET *233 0.00222655
*CONN
*I *4298:B I *D sky130_fd_sc_hd__and2_1
*I *4297:X O *D sky130_fd_sc_hd__xor2_1
*CAP
1 *4298:B 0
2 *4297:X 9.1068e-05
3 *233:16 0.000560948
4 *233:8 0.000652016
5 *233:16 *335:65 9.5877e-05
6 *233:16 *367:6 9.5877e-05
7 *233:16 *367:64 5.50049e-05
8 *4607:A *233:16 0.000179824
9 *135:8 *233:8 0.0001366
10 *225:10 *233:8 0
11 *225:48 *233:16 0.000359332
*RES
1 *4297:X *233:8 39.9057 
2 *233:8 *233:16 27.2214 
3 *233:16 *4298:B 23 
*END

*D_NET *234 0.00798587
*CONN
*I *4301:A_N I *D sky130_fd_sc_hd__and3b_1
*I *4303:A2 I *D sky130_fd_sc_hd__a21oi_1
*I *4304:A2 I *D sky130_fd_sc_hd__a21o_1
*I *4302:A2 I *D sky130_fd_sc_hd__o21ai_1
*I *4310:A2 I *D sky130_fd_sc_hd__a31o_1
*I *4311:C I *D sky130_fd_sc_hd__and4_1
*I *4306:A I *D sky130_fd_sc_hd__and2_1
*I *4299:X O *D sky130_fd_sc_hd__o31a_2
*CAP
1 *4301:A_N 6.93794e-05
2 *4303:A2 0
3 *4304:A2 0.000617488
4 *4302:A2 0
5 *4310:A2 0
6 *4311:C 0
7 *4306:A 5.53495e-05
8 *4299:X 0.000181337
9 *234:64 0.00103456
10 *234:53 0.000547694
11 *234:28 0.000106376
12 *234:26 5.10268e-05
13 *234:24 0.000683374
14 *234:10 0.00088842
15 *234:8 0.000325138
16 *4301:A_N *4301:B 2.18409e-05
17 *4301:A_N *427:22 0.000182826
18 *4304:A2 *4304:A1 5.67058e-05
19 *4304:A2 *236:10 4.21594e-06
20 *4304:A2 *237:10 7.39261e-05
21 *4304:A2 *390:10 5.67058e-05
22 *4306:A *4306:B 8.77027e-05
23 *4306:A *4311:D 1.5418e-05
24 *4306:A *238:16 1.72202e-05
25 *234:8 *236:10 0
26 *234:8 *313:10 0
27 *234:8 *427:22 0.000335142
28 *234:10 *236:10 0
29 *234:10 *264:14 0
30 *234:10 *427:22 3.47781e-05
31 *234:24 *4127:D_N 5.38247e-05
32 *234:24 *4310:B1 5.90675e-06
33 *234:24 *264:14 0
34 *234:24 *353:10 1.01436e-05
35 *234:24 *388:8 9.41047e-05
36 *234:24 *407:12 5.50049e-05
37 *234:24 *407:14 0.000180224
38 *234:24 *446:8 0.000441978
39 *234:24 *447:10 2.38288e-05
40 *234:28 *4311:B 0.000185428
41 *234:28 *238:14 4.17736e-05
42 *234:28 *238:16 0.000274078
43 *234:28 *353:16 9.84851e-05
44 *234:53 *4301:B 0.000183733
45 *234:64 *4301:B 0.000137651
46 *234:64 *236:10 0.000171699
47 *234:64 *318:8 4.83778e-05
48 *234:64 *446:60 3.83778e-05
49 *4302:B1 *4301:A_N 5.3304e-05
50 *81:8 *234:8 0.000110913
51 *144:60 *4306:A 0.00019685
52 *144:60 *234:24 2.33397e-05
53 *144:60 *234:28 1.72202e-05
54 *144:95 *4301:A_N 9.30054e-05
*RES
1 *4299:X *234:8 42.7229 
2 *234:8 *234:10 1.20143 
3 *234:10 *234:24 43.0707 
4 *234:24 *234:26 15 
5 *234:26 *234:28 3.48 
6 *234:28 *4306:A 26.045 
7 *234:28 *4311:C 23 
8 *234:26 *4310:A2 23 
9 *234:10 *234:53 17.0507 
10 *234:53 *4302:A2 23 
11 *234:53 *234:64 24.4664 
12 *234:64 *4304:A2 49.6207 
13 *234:64 *4303:A2 38 
14 *234:8 *4301:A_N 40.5271 
*END

*D_NET *235 0.00274763
*CONN
*I *4301:B I *D sky130_fd_sc_hd__and3b_1
*I *4300:X O *D sky130_fd_sc_hd__or3_1
*CAP
1 *4301:B 0.000452707
2 *4300:X 0.000479653
3 *235:10 0.00093236
4 *4301:B *236:10 2.31797e-05
5 *4301:B *427:22 1.32314e-05
6 *4301:A_N *4301:B 2.18409e-05
7 *4302:B1 *4301:B 3.34247e-05
8 *226:12 *235:10 8.76088e-05
9 *226:21 *235:10 0.000315857
10 *227:8 *235:10 6.63801e-05
11 *234:53 *4301:B 0.000183733
12 *234:64 *4301:B 0.000137651
*RES
1 *4300:X *235:10 46.9071 
2 *235:10 *4301:B 47.2179 
*END

*D_NET *236 0.00163909
*CONN
*I *4303:B1 I *D sky130_fd_sc_hd__a21oi_1
*I *4302:Y O *D sky130_fd_sc_hd__o21ai_1
*CAP
1 *4303:B1 0
2 *4302:Y 0.000450631
3 *236:10 0.000450631
4 *236:10 *4406:CLK 0
5 *236:10 *264:14 0
6 *236:10 *446:60 0.000163352
7 *4301:B *236:10 2.31797e-05
8 *4302:B1 *236:10 1.32314e-05
9 *4304:A2 *236:10 4.21594e-06
10 *81:8 *236:10 4.21594e-06
11 *82:10 *236:10 0.00035793
12 *234:8 *236:10 0
13 *234:10 *236:10 0
14 *234:64 *236:10 0.000171699
*RES
1 *4302:Y *236:10 48.7507 
2 *236:10 *4303:B1 38 
*END

*D_NET *237 0.00146345
*CONN
*I *4473:A I *D sky130_fd_sc_hd__dlygate4sd3_1
*I *4304:X O *D sky130_fd_sc_hd__a21o_1
*CAP
1 *4473:A 0
2 *4304:X 0.000467139
3 *237:10 0.000467139
4 *237:10 *4304:A1 0.000148106
5 *237:10 *4406:CLK 0
6 *237:10 *446:10 0.000129412
7 *4304:A2 *237:10 7.39261e-05
8 *4309:C1 *237:10 0.000139346
9 *83:10 *237:10 3.83778e-05
*RES
1 *4304:X *237:10 46.6793 
2 *237:10 *4473:A 38 
*END

*D_NET *238 0.00294774
*CONN
*I *4310:A3 I *D sky130_fd_sc_hd__a31o_1
*I *4311:D I *D sky130_fd_sc_hd__and4_1
*I *4306:B I *D sky130_fd_sc_hd__and2_1
*I *4305:X O *D sky130_fd_sc_hd__and2_1
*CAP
1 *4310:A3 0
2 *4311:D 1.09231e-05
3 *4306:B 4.87346e-05
4 *4305:X 0.000368917
5 *238:16 9.7518e-05
6 *238:14 9.17796e-05
7 *238:10 0.000422837
8 *4306:B *407:26 0.000230604
9 *238:10 *4127:D_N 0.000237814
10 *238:10 *241:10 0
11 *238:10 *388:23 3.74338e-05
12 *238:10 *407:8 5.21127e-05
13 *238:14 *4310:B1 5.67058e-05
14 *238:14 *353:16 2.18409e-05
15 *238:14 *407:14 0.000180218
16 *238:16 *407:14 0.000130423
17 *238:16 *407:26 0.000187129
18 *4306:A *4306:B 8.77027e-05
19 *4306:A *4311:D 1.5418e-05
20 *4306:A *238:16 1.72202e-05
21 *126:8 *238:10 2.54046e-05
22 *130:10 *238:10 0.000226306
23 *144:24 *238:10 0
24 *144:60 *4306:B 7.445e-05
25 *144:60 *238:14 1.03955e-05
26 *234:28 *238:14 4.17736e-05
27 *234:28 *238:16 0.000274078
*RES
1 *4305:X *238:10 45.25 
2 *238:10 *238:14 17.0507 
3 *238:14 *238:16 3.48 
4 *238:16 *4306:B 26.0243 
5 *238:16 *4311:D 23.4971 
6 *238:14 *4310:A3 23 
*END

*D_NET *239 0.00306823
*CONN
*I *4308:B I *D sky130_fd_sc_hd__nand2_1
*I *4307:A_N I *D sky130_fd_sc_hd__and3b_1
*I *4309:A2 I *D sky130_fd_sc_hd__o211a_1
*I *4306:X O *D sky130_fd_sc_hd__and2_1
*CAP
1 *4308:B 0
2 *4307:A_N 3.86448e-05
3 *4309:A2 0
4 *4306:X 0.000341081
5 *239:26 5.76084e-05
6 *239:20 0.000452624
7 *239:12 0.000356371
8 *239:10 0.000341081
9 *4307:A_N *264:41 1.59094e-05
10 *239:10 *4317:A2 1.24376e-05
11 *239:10 *240:10 0
12 *239:10 *242:10 3.58084e-06
13 *239:10 *246:10 1.14876e-05
14 *239:10 *264:49 0.000351626
15 *239:10 *353:37 6.07611e-06
16 *239:20 *4318:B 1.37232e-05
17 *239:20 *4407:D 1.64354e-05
18 *239:20 *240:10 0.000225446
19 *239:20 *264:41 0.000242975
20 *239:20 *264:49 7.73389e-05
21 *239:26 *353:29 0.000195248
22 *239:26 *354:10 0.00019747
23 *87:10 *239:10 7.03766e-05
24 *144:60 *239:10 4.06849e-05
*RES
1 *4306:X *239:10 45.1257 
2 *239:10 *239:12 15 
3 *239:12 *239:20 9.86 
4 *239:20 *239:26 32.61 
5 *239:26 *4309:A2 23 
6 *239:20 *4307:A_N 23.6214 
7 *239:12 *4308:B 23 
*END

*D_NET *240 0.00112962
*CONN
*I *4606:A I *D sky130_fd_sc_hd__dlygate4sd3_1
*I *4308:Y O *D sky130_fd_sc_hd__nand2_1
*CAP
1 *4606:A 0
2 *4308:Y 0.000439125
3 *240:10 0.000439125
4 *240:10 *4407:D 1.64354e-05
5 *240:10 *353:29 0
6 *240:10 *353:37 0
7 *240:10 *355:8 9.48381e-06
8 *87:10 *240:10 0
9 *239:10 *240:10 0
10 *239:20 *240:10 0.000225446
*RES
1 *4308:Y *240:10 45.1464 
2 *240:10 *4606:A 38 
*END

*D_NET *241 0.00142433
*CONN
*I *4491:A I *D sky130_fd_sc_hd__dlygate4sd3_1
*I *4310:X O *D sky130_fd_sc_hd__a31o_1
*CAP
1 *4491:A 0
2 *4310:X 0.000523131
3 *241:10 0.000523131
4 *241:10 *4127:D_N 0
5 *241:10 *407:14 5.67058e-05
6 *241:10 *407:26 0.00010018
7 *241:10 *409:8 0
8 *129:10 *241:10 0.000221184
9 *238:10 *241:10 0
*RES
1 *4310:X *241:10 47.1143 
2 *241:10 *4491:A 38 
*END

*D_NET *242 0.00574476
*CONN
*I *4316:C I *D sky130_fd_sc_hd__and3_1
*I *4313:B I *D sky130_fd_sc_hd__and2_1
*I *4314:A2 I *D sky130_fd_sc_hd__o21ai_1
*I *4319:D I *D sky130_fd_sc_hd__and4_1
*I *4312:A_N I *D sky130_fd_sc_hd__and3b_1
*I *4311:X O *D sky130_fd_sc_hd__and4_1
*CAP
1 *4316:C 0
2 *4313:B 0
3 *4314:A2 0.000119957
4 *4319:D 2.09638e-05
5 *4312:A_N 0
6 *4311:X 0.000600853
7 *242:61 5.84263e-05
8 *242:48 0.000805623
9 *242:29 0.000700886
10 *242:27 0.000142452
11 *242:14 0.000126436
12 *242:10 0.000637519
13 *4319:D *4316:B 1.39317e-05
14 *4319:D *4319:B 5.50049e-05
15 *242:10 *4317:A1 9.30054e-05
16 *242:10 *245:31 8.4047e-05
17 *242:10 *246:10 0.000226306
18 *242:10 *407:26 0.00014196
19 *242:10 *519:19 0.000138718
20 *242:14 *245:31 2.64616e-05
21 *242:27 *4319:B 6.86731e-05
22 *242:27 *245:31 9.56387e-05
23 *242:27 *519:23 0.000141954
24 *242:29 *4316:B 1.89178e-05
25 *242:29 *4319:B 0.000175265
26 *242:29 *245:31 3.17634e-05
27 *242:48 *4129:D 2.08324e-05
28 *242:48 *4410:CLK 1.40958e-05
29 *242:48 *245:12 6.68793e-05
30 *242:48 *247:8 3.70094e-05
31 *242:48 *322:10 0
32 *242:48 *516:14 0.000332516
33 *242:48 *516:34 0.000159064
34 *242:48 *516:45 4.78793e-05
35 *242:48 *519:19 0
36 *242:61 *243:8 6.07611e-06
37 *242:61 *261:52 8.62876e-05
38 *86:8 *4314:A2 0.000185428
39 *86:8 *242:48 0.000151861
40 *144:60 *242:10 8.24734e-05
41 *144:78 *242:10 2.60152e-05
42 *144:156 *242:61 0
43 *239:10 *242:10 3.58084e-06
*RES
1 *4311:X *242:10 48.15 
2 *242:10 *242:14 15.6214 
3 *242:14 *4312:A_N 23 
4 *242:14 *242:27 3.74929 
5 *242:27 *242:29 1.96786 
6 *242:29 *4319:D 23.6214 
7 *242:29 *242:48 43.34 
8 *242:48 *4314:A2 25.0507 
9 *242:48 *242:61 31.2014 
10 *242:61 *4313:B 23 
11 *242:27 *4316:C 23 
*END

*D_NET *243 0.00384654
*CONN
*I *4317:A2 I *D sky130_fd_sc_hd__o21ai_1
*I *4315:A I *D sky130_fd_sc_hd__nor2_1
*I *4313:X O *D sky130_fd_sc_hd__and2_1
*CAP
1 *4317:A2 0.000906753
2 *4315:A 0
3 *4313:X 0.000111574
4 *243:18 0.000350249
5 *243:10 0.001257
6 *243:8 0.000111574
7 *4317:A2 *4317:A1 0.000200687
8 *4317:A2 *4320:A1 0.000206181
9 *4317:A2 *245:12 8.95826e-05
10 *4317:A2 *246:10 1.5769e-05
11 *4317:A2 *517:10 0.000228909
12 *243:8 *261:46 4.96264e-05
13 *243:8 *261:52 7.75329e-06
14 *243:18 *517:10 0.000292363
15 *144:60 *4317:A2 0
16 *144:156 *243:8 0
17 *239:10 *4317:A2 1.24376e-05
18 *242:61 *243:8 6.07611e-06
*RES
1 *4313:X *243:8 39.9057 
2 *243:8 *243:10 15 
3 *243:10 *243:18 35.3857 
4 *243:18 *4315:A 23 
5 *243:10 *4317:A2 39.53 
*END

*D_NET *244 0.00178875
*CONN
*I *4588:A I *D sky130_fd_sc_hd__dlygate4sd3_1
*I *4314:Y O *D sky130_fd_sc_hd__o21ai_1
*CAP
1 *4588:A 0
2 *4314:Y 0.000550601
3 *244:10 0.000550601
4 *244:10 *4320:A1 1.01436e-05
5 *244:10 *4410:CLK 0.000359332
6 *244:10 *261:46 0.000224605
7 *244:10 *516:14 4.08641e-05
8 *244:10 *516:34 2.60152e-05
9 *86:8 *244:10 2.65879e-05
*RES
1 *4314:Y *244:10 47.1971 
2 *244:10 *4588:A 38 
*END

*D_NET *245 0.00368365
*CONN
*I *4318:A I *D sky130_fd_sc_hd__nor2_1
*I *4320:A2 I *D sky130_fd_sc_hd__o21ai_1
*I *4316:X O *D sky130_fd_sc_hd__and3_1
*CAP
1 *4318:A 0
2 *4320:A2 0
3 *4316:X 0
4 *245:31 0.00070876
5 *245:12 0.000371257
6 *245:4 0.00108002
7 *245:12 *4320:A1 0.000170365
8 *245:12 *248:10 0.000401899
9 *245:12 *519:19 0
10 *245:31 *4316:B 9.84851e-05
11 *245:31 *4318:B 5.67058e-05
12 *245:31 *4591:A 9.84851e-05
13 *245:31 *246:10 0.000151204
14 *245:31 *264:49 0
15 *245:31 *322:10 0
16 *4317:A2 *245:12 8.95826e-05
17 *144:78 *245:31 1.01436e-05
18 *144:148 *245:12 0.000141954
19 *242:10 *245:31 8.4047e-05
20 *242:14 *245:31 2.64616e-05
21 *242:27 *245:31 9.56387e-05
22 *242:29 *245:31 3.17634e-05
23 *242:48 *245:12 6.68793e-05
*RES
1 *4316:X *245:4 23 
2 *245:4 *245:12 39.6736 
3 *245:12 *4320:A2 23 
4 *245:4 *245:31 44.065 
5 *245:31 *4318:A 23 
*END

*D_NET *246 0.00183734
*CONN
*I *4591:A I *D sky130_fd_sc_hd__dlygate4sd3_1
*I *4317:Y O *D sky130_fd_sc_hd__o21ai_1
*CAP
1 *4591:A 0.000197931
2 *4317:Y 0.000264208
3 *246:10 0.000462139
4 *4591:A *4318:B 2.4754e-05
5 *246:10 *4317:A1 0.000140259
6 *246:10 *264:49 0.000103841
7 *246:10 *323:8 0.000140958
8 *4317:A2 *246:10 1.5769e-05
9 *239:10 *246:10 1.14876e-05
10 *242:10 *246:10 0.000226306
11 *245:31 *4591:A 9.84851e-05
12 *245:31 *246:10 0.000151204
*RES
1 *4317:Y *246:10 46.6586 
2 *246:10 *4591:A 41.9564 
*END

*D_NET *247 0.00705287
*CONN
*I *4327:D I *D sky130_fd_sc_hd__and4_2
*I *4325:C I *D sky130_fd_sc_hd__and3_1
*I *4324:A2 I *D sky130_fd_sc_hd__a21o_1
*I *4323:A2 I *D sky130_fd_sc_hd__a21oi_1
*I *4322:A2 I *D sky130_fd_sc_hd__o21ai_1
*I *4321:A I *D sky130_fd_sc_hd__nor2_1
*I *4319:X O *D sky130_fd_sc_hd__and4_1
*CAP
1 *4327:D 0.000369427
2 *4325:C 0.000166339
3 *4324:A2 0.000212355
4 *4323:A2 0
5 *4322:A2 0.000473659
6 *4321:A 9.35334e-05
7 *4319:X 0.000115333
8 *247:60 0.000761769
9 *247:29 0.00050353
10 *247:25 0.000430503
11 *247:12 0.000864579
12 *247:8 0.000924105
13 *4322:A2 *4322:A1 9.24339e-05
14 *4322:A2 *458:46 7.43025e-06
15 *4324:A2 *4413:CLK 1.56762e-05
16 *4324:A2 *250:8 4.334e-05
17 *4324:A2 *261:36 5.41288e-05
18 *4324:A2 *261:40 0.000128583
19 *4324:A2 *416:23 1.32314e-05
20 *4325:C *4325:A 0.000126838
21 *4325:C *4325:B 2.19639e-05
22 *4325:C *251:12 0.000173452
23 *4327:D *4129:A 0
24 *4327:D *4327:B 8.0034e-05
25 *4327:D *4500:A 0.00021866
26 *4327:D *252:6 7.53384e-06
27 *4327:D *252:62 6.24154e-05
28 *4327:D *252:70 0
29 *4327:D *416:23 0
30 *247:8 *4129:D 2.79064e-05
31 *247:8 *519:19 0
32 *247:12 *4129:A 2.93747e-05
33 *247:12 *4129:C 1.41077e-05
34 *247:12 *4129:D 5.50049e-05
35 *247:12 *4321:B 7.88828e-05
36 *247:25 *261:40 0.000296956
37 *247:29 *458:46 5.3304e-05
38 *247:60 *4128:A 0
39 *247:60 *4129:A 0
40 *247:60 *4129:B 8.62783e-05
41 *247:60 *4129:C 0
42 *247:60 *4129:D 6.7177e-06
43 *247:60 *4500:A 3.92407e-05
44 *247:60 *458:20 5.8622e-05
45 *4322:B1 *4322:A2 0.000177899
46 *4501:A *4322:A2 3.91386e-05
47 *4501:A *247:29 1.24376e-05
48 *4525:A *4321:A 1.59094e-05
49 *4525:A *247:12 3.7122e-06
50 *4529:A *4322:A2 5.67058e-05
51 *144:140 *4324:A2 0
52 *144:140 *247:25 0
53 *144:142 *247:25 0
54 *144:148 *247:25 0
55 *144:174 *247:12 2.81406e-06
56 *242:48 *247:8 3.70094e-05
*RES
1 *4319:X *247:8 39.9057 
2 *247:8 *247:12 22.7679 
3 *247:12 *4321:A 24.4707 
4 *247:12 *247:25 19.0186 
5 *247:25 *247:29 15.6214 
6 *247:29 *4322:A2 31.0164 
7 *247:29 *4323:A2 23 
8 *247:25 *4324:A2 42.4743 
9 *247:8 *247:60 4.37071 
10 *247:60 *4325:C 42.2671 
11 *247:60 *4327:D 45.9129 
*END

*D_NET *248 0.0017517
*CONN
*I *4524:A I *D sky130_fd_sc_hd__dlygate4sd3_1
*I *4320:Y O *D sky130_fd_sc_hd__o21ai_1
*CAP
1 *4524:A 0
2 *4320:Y 0.000486713
3 *248:10 0.000486713
4 *248:10 *4129:C 0.000156379
5 *248:10 *4320:A1 0.000195238
6 *144:148 *248:10 2.4754e-05
7 *245:12 *248:10 0.000401899
*RES
1 *4320:Y *248:10 47.6321 
2 *248:10 *4524:A 38 
*END

*D_NET *249 0.000754364
*CONN
*I *4323:B1 I *D sky130_fd_sc_hd__a21oi_1
*I *4322:Y O *D sky130_fd_sc_hd__o21ai_1
*CAP
1 *4323:B1 0
2 *4322:Y 0.000174931
3 *249:6 0.000174931
4 *249:6 *4322:A1 0.000404502
*RES
1 *4322:Y *249:6 27.4329 
2 *249:6 *4323:B1 23 
*END

*D_NET *250 0.000171764
*CONN
*I *4326:C I *D sky130_fd_sc_hd__and3b_1
*I *4324:X O *D sky130_fd_sc_hd__a21o_1
*CAP
1 *4326:C 0
2 *4324:X 4.25419e-05
3 *250:8 4.25419e-05
4 *4324:A2 *250:8 4.334e-05
5 *144:140 *250:8 4.334e-05
*RES
1 *4324:X *250:8 39.2014 
2 *250:8 *4326:C 38 
*END

*D_NET *251 0.00244628
*CONN
*I *4326:A_N I *D sky130_fd_sc_hd__and3b_1
*I *4328:A2 I *D sky130_fd_sc_hd__o21ai_1
*I *4325:X O *D sky130_fd_sc_hd__and3_1
*CAP
1 *4326:A_N 0
2 *4328:A2 0
3 *4325:X 0.000332545
4 *251:18 0.000383839
5 *251:12 0.000716385
6 *251:12 *4325:B 0.000193739
7 *251:12 *458:46 0.000167251
8 *251:18 *458:12 0
9 *251:18 *458:14 0
10 *251:18 *458:20 0
11 *4325:C *251:12 0.000173452
12 *4501:A *251:12 5.67058e-05
13 *144:138 *251:18 2.08324e-05
14 *144:140 *251:18 0.000318187
15 *152:16 *251:18 8.33469e-05
*RES
1 *4325:X *251:12 32.3836 
2 *251:12 *251:18 38.9486 
3 *251:18 *4328:A2 23 
4 *251:12 *4326:A_N 23 
*END

*D_NET *252 0.00720232
*CONN
*I *4332:A2 I *D sky130_fd_sc_hd__a21o_1
*I *4335:A3 I *D sky130_fd_sc_hd__a31o_1
*I *4331:A2 I *D sky130_fd_sc_hd__a21oi_1
*I *4330:A2 I *D sky130_fd_sc_hd__o21ai_1
*I *4333:C I *D sky130_fd_sc_hd__nand3_1
*I *4329:A I *D sky130_fd_sc_hd__nor2_1
*I *4327:X O *D sky130_fd_sc_hd__and4_2
*CAP
1 *4332:A2 8.36656e-05
2 *4335:A3 0
3 *4331:A2 0
4 *4330:A2 0
5 *4333:C 0
6 *4329:A 9.15739e-05
7 *4327:X 5.7061e-05
8 *252:70 0.000447145
9 *252:62 0.000862455
10 *252:45 9.73201e-05
11 *252:37 0.000341647
12 *252:33 0.000793901
13 *252:12 0.0010536
14 *252:6 0.000801156
15 *4329:A *4282:B 1.21972e-05
16 *4332:A2 *4332:A1 1.14154e-05
17 *4332:A2 *4332:B1 9.72057e-06
18 *252:6 *458:12 2.93747e-05
19 *252:12 *259:106 2.70469e-05
20 *252:12 *384:10 2.3529e-05
21 *252:12 *473:12 0
22 *252:12 *474:10 0.000348456
23 *252:12 *475:8 0
24 *252:33 *261:84 0
25 *252:33 *308:16 0.000353214
26 *252:33 *384:10 4.49946e-05
27 *252:37 *4331:A1 3.53115e-05
28 *252:37 *308:16 3.58084e-06
29 *252:45 *4331:A1 5.3304e-05
30 *252:45 *4333:B 5.50106e-05
31 *252:45 *308:16 9.84851e-05
32 *252:45 *471:51 8.72173e-05
33 *252:70 *4327:B 0
34 *252:70 *4335:A2 5.67058e-05
35 *252:70 *4335:B1 4.95081e-05
36 *252:70 *256:16 0.0001186
37 *252:70 *404:10 0
38 *252:70 *473:12 0
39 *4327:D *252:6 7.53384e-06
40 *4327:D *252:62 6.24154e-05
41 *4327:D *252:70 0
42 *4546:A *4329:A 9.67842e-05
43 *74:10 *4329:A 0.000137651
44 *74:10 *252:33 0
45 *92:10 *252:37 0.000139352
46 *93:10 *252:70 0.000176355
47 *100:8 *252:33 0.000205566
48 *100:8 *252:37 2.02517e-05
49 *100:20 *252:12 0
50 *100:20 *252:33 7.88926e-05
51 *100:57 *252:45 0
52 *144:78 *252:70 2.93747e-05
53 *144:205 *252:45 2.96154e-05
54 *152:8 *252:33 0.000112685
55 *152:16 *252:12 5.08899e-05
56 *152:16 *252:33 7.75329e-06
*RES
1 *4327:X *252:6 24.0979 
2 *252:6 *252:12 23.7414 
3 *252:12 *4329:A 40.4236 
4 *252:12 *252:33 28.2779 
5 *252:33 *252:37 4.205 
6 *252:37 *252:45 32.6514 
7 *252:45 *4333:C 23 
8 *252:37 *4330:A2 23 
9 *252:33 *4331:A2 23 
10 *252:6 *252:62 5.38571 
11 *252:62 *252:70 40.6057 
12 *252:70 *4335:A3 23 
13 *252:62 *4332:A2 24.595 
*END

*D_NET *253 0.000309154
*CONN
*I *4545:A I *D sky130_fd_sc_hd__dlygate4sd3_1
*I *4328:Y O *D sky130_fd_sc_hd__o21ai_1
*CAP
1 *4545:A 0.000126224
2 *4328:Y 0.000126224
3 *4545:A *4328:A1 5.67058e-05
*RES
1 *4328:Y *4545:A 48.4236 
*END

*D_NET *254 0.000126903
*CONN
*I *4331:B1 I *D sky130_fd_sc_hd__a21oi_1
*I *4330:Y O *D sky130_fd_sc_hd__o21ai_1
*CAP
1 *4331:B1 6.74574e-06
2 *4330:Y 6.74574e-06
3 *4331:B1 *4331:A1 5.67058e-05
4 *4331:B1 *308:16 5.67058e-05
*RES
1 *4330:Y *4331:B1 46.6214 
*END

*D_NET *255 0.000784342
*CONN
*I *4488:A I *D sky130_fd_sc_hd__dlygate4sd3_1
*I *4332:X O *D sky130_fd_sc_hd__a21o_1
*CAP
1 *4488:A 0
2 *4332:X 0.000243429
3 *255:10 0.000243429
4 *255:10 *4332:B1 0.000230604
5 *255:10 *314:10 0
6 *255:10 *404:10 0
7 *93:10 *255:10 6.68793e-05
*RES
1 *4332:X *255:10 42.4329 
2 *255:10 *4488:A 38 
*END

*D_NET *256 0.00403916
*CONN
*I *4336:A2 I *D sky130_fd_sc_hd__o211a_1
*I *4334:C I *D sky130_fd_sc_hd__and3_1
*I *4333:Y O *D sky130_fd_sc_hd__nand3_1
*CAP
1 *4336:A2 0.000171475
2 *4334:C 0
3 *4333:Y 0.000204705
4 *256:16 0.000658141
5 *256:10 0.00103432
6 *256:10 *4333:A 0.000117992
7 *256:10 *471:51 0.000367056
8 *256:16 *4130:D_N 7.76364e-06
9 *256:16 *4333:A 6.88819e-05
10 *256:16 *4335:B1 0.000228903
11 *256:16 *403:10 9.21347e-06
12 *256:16 *471:8 0.000348475
13 *256:16 *471:12 0.000247678
14 *256:16 *471:51 6.70363e-05
15 *256:16 *473:34 0.000185666
16 *4336:C1 *4336:A2 4.00259e-06
17 *92:10 *256:10 5.50106e-05
18 *144:122 *4336:A2 6.82611e-05
19 *144:124 *4336:A2 7.59794e-05
20 *252:70 *256:16 0.0001186
*RES
1 *4333:Y *256:10 43.6964 
2 *256:10 *256:16 30.0282 
3 *256:16 *4334:C 23 
4 *256:10 *4336:A2 41.5007 
*END

*D_NET *257 0.00165996
*CONN
*I *4336:B1 I *D sky130_fd_sc_hd__o211a_1
*I *4335:X O *D sky130_fd_sc_hd__a31o_1
*CAP
1 *4336:B1 0
2 *4335:X 0.00055556
3 *257:10 0.00055556
4 *257:10 *4130:B 0.000196027
5 *257:10 *4130:D_N 8.92738e-05
6 *257:10 *4333:A 0.000122407
7 *257:10 *259:14 0
8 *257:10 *316:25 0
9 *257:10 *352:10 0
10 *257:10 *403:10 2.70366e-05
11 *257:10 *405:8 0.000114092
*RES
1 *4335:X *257:10 48.4193 
2 *257:10 *4336:B1 38 
*END

*D_NET *258 0.00100075
*CONN
*I *4481:A I *D sky130_fd_sc_hd__dlygate4sd3_1
*I *4337:X O *D sky130_fd_sc_hd__o221a_1
*CAP
1 *4481:A 0
2 *4337:X 0.000112528
3 *258:8 0.000112528
4 *258:8 *351:22 0.000363379
5 *95:6 *258:8 8.06804e-06
6 *100:189 *258:8 0.000404246
*RES
1 *4337:X *258:8 27.93 
2 *258:8 *4481:A 23 
*END

*D_NET *259 0.040046
*CONN
*I *570:DIODE I *D sky130_fd_sc_hd__diode_2
*I *4426:A I *D sky130_fd_sc_hd__clkbuf_16
*I *563:DIODE I *D sky130_fd_sc_hd__diode_2
*I *567:DIODE I *D sky130_fd_sc_hd__diode_2
*I *566:DIODE I *D sky130_fd_sc_hd__diode_2
*I *4422:A I *D sky130_fd_sc_hd__clkbuf_16
*I *4423:A I *D sky130_fd_sc_hd__clkbuf_16
*I *565:DIODE I *D sky130_fd_sc_hd__diode_2
*I *4421:A I *D sky130_fd_sc_hd__clkbuf_16
*I *4420:A I *D sky130_fd_sc_hd__clkbuf_16
*I *564:DIODE I *D sky130_fd_sc_hd__diode_2
*I *571:DIODE I *D sky130_fd_sc_hd__diode_2
*I *4427:A I *D sky130_fd_sc_hd__clkbuf_16
*I *569:DIODE I *D sky130_fd_sc_hd__diode_2
*I *4425:A I *D sky130_fd_sc_hd__clkbuf_16
*I *4424:A I *D sky130_fd_sc_hd__clkbuf_16
*I *568:DIODE I *D sky130_fd_sc_hd__diode_2
*I *4419:X O *D sky130_fd_sc_hd__clkbuf_16
*CAP
1 *570:DIODE 5.49162e-05
2 *4426:A 3.13795e-05
3 *563:DIODE 0
4 *567:DIODE 0.000119895
5 *566:DIODE 0
6 *4422:A 0.000286532
7 *4423:A 0
8 *565:DIODE 0
9 *4421:A 0
10 *4420:A 0
11 *564:DIODE 0.000124419
12 *571:DIODE 7.24575e-05
13 *4427:A 1.08631e-05
14 *569:DIODE 0
15 *4425:A 4.11105e-05
16 *4424:A 0
17 *568:DIODE 0
18 *4419:X 0.000247345
19 *259:213 0.00112815
20 *259:173 0.00079541
21 *259:164 0.000876084
22 *259:160 0.00171048
23 *259:154 0.00140477
24 *259:152 0.00133346
25 *259:133 0.000690116
26 *259:116 0.00139613
27 *259:106 0.00122795
28 *259:92 0.00151368
29 *259:64 0.00108343
30 *259:53 0.00116836
31 *259:42 0.000821423
32 *259:31 0.00137542
33 *259:20 0.0012131
34 *259:14 0.00203924
35 *259:8 0.00107972
36 *564:DIODE *4254:A1 0.000256877
37 *564:DIODE *386:10 9.84794e-05
38 *567:DIODE *373:257 6.4393e-05
39 *567:DIODE *488:66 5.3304e-05
40 *570:DIODE *4434:A 2.36844e-05
41 *570:DIODE *266:12 1.19796e-05
42 *571:DIODE *267:8 5.50049e-05
43 *571:DIODE *362:170 0
44 *571:DIODE *479:20 2.71291e-05
45 *4422:A *4484:A 9.67842e-05
46 *4422:A *400:6 5.67058e-05
47 *4427:A *267:8 5.50106e-05
48 *4427:A *362:238 5.67058e-05
49 *259:8 *306:12 2.93845e-05
50 *259:8 *306:24 1.40958e-05
51 *259:14 *264:140 0.000223043
52 *259:14 *266:22 3.81554e-05
53 *259:14 *306:8 3.0647e-05
54 *259:14 *307:23 0.000743092
55 *259:14 *307:34 0.000154138
56 *259:14 *308:10 0
57 *259:14 *308:16 0
58 *259:14 *350:14 1.01436e-05
59 *259:14 *352:10 7.55491e-05
60 *259:20 *264:88 0.000521896
61 *259:20 *350:14 0.000139647
62 *259:20 *352:10 7.28526e-05
63 *259:31 *264:8 9.52814e-06
64 *259:31 *264:88 8.264e-05
65 *259:42 *4285:D1 2.12414e-05
66 *259:42 *4340:D 0.000187085
67 *259:42 *265:10 0.00015795
68 *259:42 *265:51 0.000126056
69 *259:42 *265:57 5.50106e-05
70 *259:42 *336:10 5.67058e-05
71 *259:42 *513:14 0.000607156
72 *259:42 *514:20 0.000182832
73 *259:53 *265:10 6.16531e-05
74 *259:53 *327:18 0
75 *259:53 *514:20 0
76 *259:64 *4170:A0 0
77 *259:64 *305:10 8.4047e-05
78 *259:64 *327:18 0
79 *259:64 *362:157 9.10621e-05
80 *259:64 *362:164 0
81 *259:64 *362:170 0
82 *259:64 *363:12 0.00117551
83 *259:64 *479:20 9.54616e-05
84 *259:92 *403:8 9.67842e-05
85 *259:92 *473:6 4.95081e-05
86 *259:92 *473:34 0.000556126
87 *259:106 *4328:A1 0.000271476
88 *259:106 *4414:CLK 0
89 *259:106 *473:6 2.32101e-05
90 *259:106 *474:10 0.000216176
91 *259:116 *4254:A1 9.0102e-05
92 *259:116 *4398:CLK 3.7122e-06
93 *259:133 *260:12 4.34973e-05
94 *259:133 *260:75 0.000145611
95 *259:133 *260:96 0.000117759
96 *259:133 *381:14 4.07902e-05
97 *259:152 *266:22 7.75329e-06
98 *259:152 *306:8 6.22475e-05
99 *259:152 *307:34 0.000161121
100 *259:154 *460:133 0.000168985
101 *259:160 *4133:B 0
102 *259:160 *4536:A 9.30151e-05
103 *259:160 *272:8 4.83778e-05
104 *259:160 *373:257 0.000201454
105 *259:160 *460:126 0.000609764
106 *259:160 *460:133 0.000144067
107 *259:160 *465:8 0
108 *259:160 *488:20 3.95159e-06
109 *259:164 *4431:A 0.000433252
110 *259:164 *263:8 4.5051e-05
111 *259:164 *290:16 0.00027921
112 *259:173 *4246:A1 0.000361027
113 *259:173 *4431:A 5.54148e-05
114 *259:173 *341:19 0.000136738
115 *259:213 *4203:A1 0
116 *259:213 *4363:CLK 0
117 *259:213 *4363:D 6.71074e-05
118 *259:213 *266:12 2.22079e-05
119 *259:213 *296:8 0.000338964
120 *259:213 *460:133 2.43944e-05
121 *259:213 *460:143 0
122 *259:213 *460:156 1.3109e-05
123 *259:213 *461:25 0
124 *259:213 *462:8 0
125 *531:DIODE *259:160 0.000141954
126 *4203:C1 *259:213 0
127 *4205:A2 *259:8 7.42621e-05
128 *4205:C1 *259:8 5.67058e-05
129 *4211:B *259:160 0
130 *4220:C1 *259:213 7.55698e-05
131 *4246:B1 *259:173 2.93845e-05
132 *4251:A *259:133 0.000395889
133 *4251:B *259:133 5.3304e-05
134 *4252:B *259:116 0.000380352
135 *4469:A *259:116 0.000141835
136 *35:10 *259:64 0
137 *45:8 *259:8 0.000137651
138 *63:8 *259:133 0.000115382
139 *75:10 *259:116 3.56537e-05
140 *95:14 *4425:A 9.41704e-05
141 *96:10 *259:14 0.000164282
142 *96:10 *259:92 3.7122e-06
143 *97:22 *259:160 1.03836e-05
144 *100:189 *259:53 5.94125e-05
145 *100:234 *259:64 0
146 *100:317 *259:160 0.000308952
147 *100:338 *259:160 0.000314157
148 *101:10 *4425:A 9.41704e-05
149 *101:10 *259:53 7.73823e-06
150 *102:10 *259:42 7.8128e-05
151 *102:10 *259:53 6.84517e-05
152 *122:32 *259:164 0.00014196
153 *122:45 *259:164 0.00029741
154 *131:10 *259:160 0.000367698
155 *133:93 *259:64 0.000232082
156 *133:108 *259:64 9.05451e-05
157 *134:79 *4426:A 2.30292e-05
158 *142:10 *259:53 2.76611e-06
159 *142:10 *259:64 0.000108907
160 *142:69 *259:14 0
161 *144:138 *259:106 0.000268074
162 *151:12 *567:DIODE 0.000126343
163 *151:12 *259:160 0.00130742
164 *152:16 *259:106 0.000169674
165 *154:10 *259:64 0.000314329
166 *175:10 *259:160 5.50106e-05
167 *180:63 *570:DIODE 5.20202e-05
168 *180:63 *259:213 0.000245304
169 *200:37 *259:133 0
170 *201:10 *259:173 2.98648e-05
171 *203:8 *259:133 0
172 *205:14 *259:133 0.000528014
173 *226:57 *259:53 0.000136512
174 *252:12 *259:106 2.70469e-05
175 *257:10 *259:14 0
*RES
1 *4419:X *259:8 43.3857 
2 *259:8 *259:14 18.1664 
3 *259:14 *259:20 22.7679 
4 *259:20 *568:DIODE 23 
5 *259:20 *259:31 10.3157 
6 *259:31 *4424:A 23 
7 *259:31 *259:42 30.7429 
8 *259:42 *4425:A 39.0979 
9 *259:42 *259:53 4.01857 
10 *259:53 *569:DIODE 38 
11 *259:53 *259:64 24.7121 
12 *259:64 *4427:A 38.6214 
13 *259:64 *571:DIODE 39.4707 
14 *259:14 *259:92 33.415 
15 *259:92 *259:106 44.9764 
16 *259:106 *259:116 42.035 
17 *259:116 *564:DIODE 26.0036 
18 *259:116 *259:133 47.1721 
19 *259:133 *4420:A 23 
20 *259:106 *4421:A 23 
21 *259:92 *565:DIODE 23 
22 *259:8 *259:152 17.2579 
23 *259:152 *259:154 3.48 
24 *259:154 *259:160 48.1429 
25 *259:160 *259:164 25.6264 
26 *259:164 *4423:A 23 
27 *259:164 *259:173 10.1707 
28 *259:173 *4422:A 27.9093 
29 *259:173 *566:DIODE 23 
30 *259:160 *567:DIODE 40.5271 
31 *259:154 *563:DIODE 23 
32 *259:152 *259:213 33.995 
33 *259:213 *4426:A 38.6214 
34 *259:213 *570:DIODE 39.5536 
*END

*D_NET *260 0.0114449
*CONN
*I *4381:CLK I *D sky130_fd_sc_hd__dfxtp_1
*I *4398:CLK I *D sky130_fd_sc_hd__dfxtp_1
*I *4383:CLK I *D sky130_fd_sc_hd__dfxtp_1
*I *4428:A I *D sky130_fd_sc_hd__inv_6
*I *4386:CLK I *D sky130_fd_sc_hd__dfxtp_1
*I *4384:CLK I *D sky130_fd_sc_hd__dfxtp_1
*I *4350:CLK I *D sky130_fd_sc_hd__dfxtp_1
*I *4385:CLK I *D sky130_fd_sc_hd__dfxtp_1
*I *4420:X O *D sky130_fd_sc_hd__clkbuf_16
*CAP
1 *4381:CLK 0.000488232
2 *4398:CLK 0.000271597
3 *4383:CLK 0.000215039
4 *4428:A 0
5 *4386:CLK 2.61771e-05
6 *4384:CLK 8.47771e-05
7 *4350:CLK 0
8 *4385:CLK 0.000332379
9 *4420:X 0
10 *260:96 0.0012437
11 *260:75 0.000956847
12 *260:43 0.00054036
13 *260:37 0.000726439
14 *260:24 0.000656998
15 *260:20 0.00103918
16 *260:12 0.00133357
17 *260:4 0.000801825
18 *4381:CLK *510:14 0
19 *4381:CLK *512:10 4.58924e-05
20 *4383:CLK *281:23 0
21 *4383:CLK *385:12 0
22 *4384:CLK *283:10 3.34247e-05
23 *4386:CLK *283:23 3.3123e-05
24 *260:12 *282:19 5.36457e-05
25 *260:20 *4386:D 1.86404e-05
26 *260:20 *284:10 2.21565e-05
27 *260:20 *480:16 5.41288e-05
28 *260:24 *283:10 8.05936e-05
29 *260:24 *283:23 6.42902e-05
30 *260:37 *283:10 1.32314e-05
31 *260:43 *444:8 0
32 *260:75 *281:23 0
33 *4251:B *260:96 5.3304e-05
34 *4382:D *260:96 0.000241973
35 *4385:D *4385:CLK 8.90341e-05
36 *4398:D *4398:CLK 1.64354e-05
37 *4469:A *4398:CLK 3.91386e-05
38 *66:10 *260:24 0
39 *134:22 *4383:CLK 0.000191649
40 *134:22 *260:75 5.56203e-05
41 *140:18 *4381:CLK 0
42 *140:18 *4398:CLK 0
43 *140:18 *260:96 0.000270682
44 *203:8 *4381:CLK 0
45 *204:10 *260:96 0.000394994
46 *205:14 *260:12 0.000528014
47 *207:10 *260:43 4.83778e-05
48 *207:19 *260:24 0
49 *207:19 *260:43 6.88819e-05
50 *207:36 *4386:CLK 0
51 *207:36 *260:24 0
52 *209:23 *260:24 0
53 *259:116 *4398:CLK 3.7122e-06
54 *259:133 *260:12 4.34973e-05
55 *259:133 *260:75 0.000145611
56 *259:133 *260:96 0.000117759
*RES
1 *4420:X *260:4 23 
2 *260:4 *260:12 39.0729 
3 *260:12 *260:20 26.4964 
4 *260:20 *260:24 19.3707 
5 *260:24 *4385:CLK 28.8829 
6 *260:24 *260:37 1.94714 
7 *260:37 *260:43 41.0614 
8 *260:43 *4350:CLK 23 
9 *260:37 *4384:CLK 24.5743 
10 *260:20 *4386:CLK 38.8493 
11 *260:12 *4428:A 23 
12 *260:4 *260:75 19.5571 
13 *260:75 *4383:CLK 43.075 
14 *260:75 *260:96 40.9371 
15 *260:96 *4398:CLK 42.5779 
16 *260:96 *4381:CLK 47.3007 
*END

*D_NET *261 0.0116173
*CONN
*I *4414:CLK I *D sky130_fd_sc_hd__dfxtp_1
*I *4394:CLK I *D sky130_fd_sc_hd__dfxtp_1
*I *4393:CLK I *D sky130_fd_sc_hd__dfxtp_1
*I *4382:CLK I *D sky130_fd_sc_hd__dfxtp_1
*I *4413:CLK I *D sky130_fd_sc_hd__dfxtp_1
*I *4411:CLK I *D sky130_fd_sc_hd__dfxtp_1
*I *4410:CLK I *D sky130_fd_sc_hd__dfxtp_1
*I *4409:CLK I *D sky130_fd_sc_hd__dfxtp_1
*I *4412:CLK I *D sky130_fd_sc_hd__dfxtp_1
*I *4429:A I *D sky130_fd_sc_hd__clkinvlp_4
*I *4421:X O *D sky130_fd_sc_hd__clkbuf_16
*CAP
1 *4414:CLK 0.000177849
2 *4394:CLK 0
3 *4393:CLK 0
4 *4382:CLK 0.000299832
5 *4413:CLK 0.00014668
6 *4411:CLK 3.09382e-05
7 *4410:CLK 0.000152715
8 *4409:CLK 0
9 *4412:CLK 0
10 *4429:A 9.37445e-05
11 *4421:X 0
12 *261:106 0.000884764
13 *261:86 0.000299832
14 *261:84 0.00137447
15 *261:52 0.000201171
16 *261:46 0.000697375
17 *261:40 0.000915894
18 *261:36 0.000768091
19 *261:29 0.000376506
20 *261:16 0.000833581
21 *261:8 0.0010369
22 *261:4 0.000281768
23 *4410:CLK *4314:A1 1.56762e-05
24 *4410:CLK *516:14 0.000402801
25 *4411:CLK *324:8 2.93845e-05
26 *4413:CLK *416:23 0.000269775
27 *261:40 *454:8 0
28 *261:40 *458:52 0.000114092
29 *261:46 *4314:A1 9.91701e-05
30 *261:52 *516:14 0
31 *261:52 *518:8 0
32 *261:84 *395:8 0
33 *261:106 *4394:D 6.67551e-05
34 *261:106 *287:10 1.7009e-05
35 *261:106 *450:8 0
36 *4324:A2 *4413:CLK 1.56762e-05
37 *4324:A2 *261:36 5.41288e-05
38 *4324:A2 *261:40 0.000128583
39 *86:8 *261:46 1.76557e-05
40 *140:18 *4382:CLK 0.000148688
41 *140:18 *261:84 0
42 *140:18 *261:106 0
43 *144:138 *4414:CLK 0.000266265
44 *144:138 *261:8 4.94192e-05
45 *144:138 *261:16 0.000185104
46 *144:140 *261:16 3.70187e-05
47 *144:140 *261:29 0
48 *144:140 *261:40 0
49 *144:148 *261:40 0
50 *144:148 *261:46 0
51 *144:156 *261:46 8.93663e-05
52 *144:174 *261:40 0
53 *152:16 *261:16 0
54 *152:16 *261:84 0
55 *242:48 *4410:CLK 1.40958e-05
56 *242:61 *261:52 8.62876e-05
57 *243:8 *261:46 4.96264e-05
58 *243:8 *261:52 7.75329e-06
59 *244:10 *4410:CLK 0.000359332
60 *244:10 *261:46 0.000224605
61 *247:25 *261:40 0.000296956
62 *252:33 *261:84 0
63 *259:106 *4414:CLK 0
*RES
1 *4421:X *261:4 23 
2 *261:4 *261:8 16.5743 
3 *261:8 *261:16 23.12 
4 *261:16 *4429:A 24.5743 
5 *261:16 *261:29 35.4271 
6 *261:29 *4412:CLK 23 
7 *261:29 *261:36 1.57429 
8 *261:36 *261:40 23.5964 
9 *261:40 *261:46 22.9543 
10 *261:46 *261:52 33.3143 
11 *261:52 *4409:CLK 23 
12 *261:46 *4410:CLK 28.8829 
13 *261:40 *4411:CLK 38.6214 
14 *261:36 *4413:CLK 26.48 
15 *261:8 *261:84 7.89214 
16 *261:84 *261:86 15 
17 *261:86 *4382:CLK 28.8621 
18 *261:86 *4393:CLK 23 
19 *261:84 *261:106 28.34 
20 *261:106 *4394:CLK 23 
21 *261:4 *4414:CLK 26.8529 
*END

*D_NET *262 0.00817757
*CONN
*I *4349:CLK I *D sky130_fd_sc_hd__dfxtp_1
*I *4391:CLK I *D sky130_fd_sc_hd__dfxtp_1
*I *4392:CLK I *D sky130_fd_sc_hd__dfxtp_1
*I *4430:A I *D sky130_fd_sc_hd__inv_6
*I *4390:CLK I *D sky130_fd_sc_hd__dfxtp_1
*I *4389:CLK I *D sky130_fd_sc_hd__dfxtp_1
*I *4388:CLK I *D sky130_fd_sc_hd__dfxtp_1
*I *4387:CLK I *D sky130_fd_sc_hd__dfxtp_1
*I *4422:X O *D sky130_fd_sc_hd__clkbuf_16
*CAP
1 *4349:CLK 0.00034778
2 *4391:CLK 1.80505e-05
3 *4392:CLK 0
4 *4430:A 2.34823e-05
5 *4390:CLK 0
6 *4389:CLK 9.37145e-05
7 *4388:CLK 0.000157216
8 *4387:CLK 0.000371116
9 *4422:X 0
10 *262:82 0.000527748
11 *262:73 0.000499555
12 *262:55 0.00022705
13 *262:16 0.000948851
14 *262:14 0.00111828
15 *262:8 0.00128922
16 *262:6 0.000544083
17 *262:4 0.000400117
18 *4349:CLK *345:8 0.000114092
19 *4388:CLK *4388:D 0.000102732
20 *4391:CLK *276:10 5.50049e-05
21 *4391:CLK *344:10 2.93747e-05
22 *262:6 *4278:A1 0.000314157
23 *262:8 *4275:A1 5.50049e-05
24 *262:8 *4278:A1 0.000141954
25 *262:16 *420:10 0
26 *262:16 *421:8 0
27 *262:55 *369:10 0
28 *262:73 *4278:A1 5.3304e-05
29 *262:73 *400:14 0.000159829
30 *262:73 *402:8 0
31 *4278:A2 *4430:A 0
32 *4598:A *4349:CLK 0
33 *4598:A *262:82 0
34 *69:8 *262:16 0
35 *72:8 *262:73 4.2062e-05
36 *140:169 *262:8 0.00019389
37 *219:6 *262:8 3.22879e-05
38 *219:17 *262:6 0.000168821
39 *219:17 *262:8 9.91701e-05
40 *220:8 *262:55 0
41 *222:10 *262:73 4.96264e-05
*RES
1 *4422:X *262:4 23 
2 *262:4 *262:6 3.48 
3 *262:6 *262:8 9.67357 
4 *262:8 *262:14 25.4814 
5 *262:14 *262:16 7.89214 
6 *262:16 *4387:CLK 44.7529 
7 *262:16 *4388:CLK 41.0243 
8 *262:14 *4389:CLK 39.5743 
9 *262:8 *262:55 33.8321 
10 *262:55 *4390:CLK 23 
11 *262:6 *4430:A 23.4971 
12 *262:4 *262:73 21.6907 
13 *262:73 *4392:CLK 38 
14 *262:73 *262:82 2.96214 
15 *262:82 *4391:CLK 38.6214 
16 *262:82 *4349:CLK 44.7529 
*END

*D_NET *263 0.0139561
*CONN
*I *4375:CLK I *D sky130_fd_sc_hd__dfxtp_1
*I *4377:CLK I *D sky130_fd_sc_hd__dfxtp_1
*I *4395:CLK I *D sky130_fd_sc_hd__dfxtp_2
*I *4397:CLK I *D sky130_fd_sc_hd__dfxtp_4
*I *4379:CLK I *D sky130_fd_sc_hd__dfxtp_1
*I *4431:A I *D sky130_fd_sc_hd__inv_4
*I *4396:CLK I *D sky130_fd_sc_hd__dfxtp_2
*I *4380:CLK I *D sky130_fd_sc_hd__dfxtp_1
*I *4373:CLK I *D sky130_fd_sc_hd__dfxtp_1
*I *4378:CLK I *D sky130_fd_sc_hd__dfxtp_1
*I *4423:X O *D sky130_fd_sc_hd__clkbuf_16
*CAP
1 *4375:CLK 0.000385781
2 *4377:CLK 0
3 *4395:CLK 0
4 *4397:CLK 0.000473972
5 *4379:CLK 0.000463879
6 *4431:A 0.000267531
7 *4396:CLK 0
8 *4380:CLK 0.000166356
9 *4373:CLK 0.000559727
10 *4378:CLK 0
11 *4423:X 0.000134194
12 *263:98 0.000729554
13 *263:80 0.000473972
14 *263:78 0.000827822
15 *263:65 0.000742555
16 *263:63 0.000669339
17 *263:18 0.000897712
18 *263:14 0.000606701
19 *263:12 0.000176877
20 *263:10 0.000386019
21 *263:8 0.000281316
22 *4373:CLK *4378:D 0.000102732
23 *4373:CLK *373:216 0.000395545
24 *4375:CLK *529:DIODE 1.94812e-05
25 *4375:CLK *4243:D 9.67842e-05
26 *4375:CLK *460:42 0.000521114
27 *4375:CLK *460:44 9.74625e-05
28 *4375:CLK *488:66 0.000187564
29 *4375:CLK *488:70 5.25848e-05
30 *4380:CLK *4145:A1 2.4754e-05
31 *4380:CLK *356:18 0.000349818
32 *4431:A *290:16 9.41704e-05
33 *263:10 *290:8 3.97399e-05
34 *263:12 *290:8 5.62433e-06
35 *263:12 *290:29 0.000170546
36 *263:14 *290:29 0.000233453
37 *263:18 *290:29 0.00021039
38 *263:18 *290:37 0.00042646
39 *263:18 *373:222 8.23009e-05
40 *263:18 *373:231 2.19539e-05
41 *263:18 *482:10 4.96264e-05
42 *263:63 *290:8 7.45175e-05
43 *263:63 *432:31 2.96154e-05
44 *263:65 *290:8 0.000124062
45 *263:78 *290:8 5.09885e-05
46 *4145:A2 *4380:CLK 0.000180218
47 *4227:B *4375:CLK 7.27182e-05
48 *4227:C *4375:CLK 4.97911e-05
49 *4397:D *4397:CLK 0.000315852
50 *17:8 *263:65 2.76611e-06
51 *17:8 *263:78 3.56537e-05
52 *19:8 *263:78 0
53 *122:32 *263:8 9.84851e-05
54 *122:32 *263:10 2.96154e-05
55 *122:32 *263:12 9.63815e-05
56 *122:32 *263:14 0.000118899
57 *122:32 *263:18 9.70251e-05
58 *122:38 *263:10 0
59 *122:38 *263:63 0
60 *122:38 *263:65 0
61 *138:16 *4379:CLK 0.00034097
62 *139:10 *263:65 0
63 *140:66 *4380:CLK 0.000123934
64 *180:10 *4373:CLK 9.84851e-05
65 *188:10 *4375:CLK 5.70419e-05
66 *259:164 *4431:A 0.000433252
67 *259:164 *263:8 4.5051e-05
68 *259:173 *4431:A 5.54148e-05
*RES
1 *4423:X *263:8 40.0507 
2 *263:8 *263:10 1.20143 
3 *263:10 *263:12 2.61 
4 *263:12 *263:14 3.31429 
5 *263:14 *263:18 23.5964 
6 *263:18 *4378:CLK 23 
7 *263:18 *4373:CLK 34.745 
8 *263:14 *4380:CLK 43.3857 
9 *263:12 *4396:CLK 38 
10 *263:10 *4431:A 44.3593 
11 *263:8 *263:63 2.25786 
12 *263:63 *263:65 3.66643 
13 *263:65 *4379:CLK 45.1879 
14 *263:65 *263:78 2.25786 
15 *263:78 *263:80 15 
16 *263:80 *4397:CLK 32.6736 
17 *263:80 *4395:CLK 23 
18 *263:78 *263:98 28.195 
19 *263:98 *4377:CLK 23 
20 *263:63 *4375:CLK 49.7243 
*END

*D_NET *264 0.0146606
*CONN
*I *4357:CLK I *D sky130_fd_sc_hd__dfxtp_1
*I *4415:CLK I *D sky130_fd_sc_hd__dfxtp_1
*I *4399:CLK I *D sky130_fd_sc_hd__dfxtp_1
*I *4341:CLK I *D sky130_fd_sc_hd__dfxtp_1
*I *4417:CLK I *D sky130_fd_sc_hd__dfxtp_1
*I *4416:CLK I *D sky130_fd_sc_hd__dfxtp_1
*I *4432:A I *D sky130_fd_sc_hd__clkinv_2
*I *4404:CLK I *D sky130_fd_sc_hd__dfxtp_1
*I *4405:CLK I *D sky130_fd_sc_hd__dfxtp_1
*I *4407:CLK I *D sky130_fd_sc_hd__dfxtp_1
*I *4408:CLK I *D sky130_fd_sc_hd__dfxtp_1
*I *4406:CLK I *D sky130_fd_sc_hd__dfxtp_1
*I *4424:X O *D sky130_fd_sc_hd__clkbuf_16
*CAP
1 *4357:CLK 0
2 *4415:CLK 0
3 *4399:CLK 0.000221254
4 *4341:CLK 0
5 *4417:CLK 0
6 *4416:CLK 3.87681e-05
7 *4432:A 8.18961e-05
8 *4404:CLK 0
9 *4405:CLK 0
10 *4407:CLK 0
11 *4408:CLK 0
12 *4406:CLK 0.00030031
13 *4424:X 8.23639e-05
14 *264:140 0.000523105
15 *264:119 0.00110585
16 *264:117 0.000857564
17 *264:102 0.000601114
18 *264:88 0.000484457
19 *264:82 0.000602894
20 *264:49 0.000444502
21 *264:41 0.00157532
22 *264:29 0.00116959
23 *264:14 0.000793687
24 *264:12 0.000536649
25 *264:10 0.000362309
26 *264:8 0.000332902
27 *4399:CLK *4399:D 1.64354e-05
28 *4399:CLK *308:16 0.000236637
29 *4406:CLK *4303:A1 0.000192614
30 *4406:CLK *4406:D 1.64354e-05
31 *4406:CLK *446:10 0
32 *4416:CLK *316:25 4.06849e-05
33 *264:10 *394:21 0
34 *264:10 *396:8 0
35 *264:12 *427:22 7.90939e-05
36 *264:14 *4305:B 0
37 *264:14 *427:22 6.60662e-05
38 *264:14 *446:10 0
39 *264:14 *446:36 0
40 *264:14 *447:10 5.561e-05
41 *264:41 *4304:B1 1.7992e-05
42 *264:41 *320:8 0
43 *264:41 *353:10 5.41385e-05
44 *264:41 *353:29 0
45 *264:41 *354:10 2.29192e-05
46 *264:41 *389:10 0.000165308
47 *264:49 *323:8 6.93553e-05
48 *264:49 *407:26 0
49 *264:82 *396:8 0
50 *264:88 *4417:D 1.64354e-05
51 *264:88 *316:25 2.31797e-05
52 *264:102 *396:8 0
53 *264:117 *361:8 0
54 *264:119 *4190:A 2.64616e-05
55 *264:140 *4415:D 2.64616e-05
56 *264:140 *449:10 5.70419e-05
57 *4190:C *264:119 4.08713e-05
58 *4307:A_N *264:41 1.59094e-05
59 *4543:A *264:140 5.50106e-05
60 *82:10 *4406:CLK 5.37348e-06
61 *82:10 *264:14 0
62 *87:10 *264:49 7.44257e-05
63 *92:10 *4399:CLK 3.7122e-06
64 *92:10 *264:140 0
65 *100:90 *264:117 0
66 *130:16 *264:10 0.000341483
67 *130:16 *264:12 0.000241616
68 *130:16 *264:14 3.70187e-05
69 *130:16 *264:82 0.000108951
70 *130:16 *264:102 0.000184165
71 *130:16 *264:117 0.000210659
72 *133:42 *264:117 5.50106e-05
73 *133:42 *264:119 5.50049e-05
74 *143:103 *264:117 0.000122397
75 *144:18 *264:14 3.45333e-05
76 *144:68 *264:49 3.63546e-05
77 *144:78 *264:49 0
78 *168:6 *264:117 1.5769e-05
79 *168:6 *264:119 1.94693e-05
80 *168:14 *264:117 9.26098e-05
81 *234:10 *264:14 0
82 *234:24 *264:14 0
83 *236:10 *4406:CLK 0
84 *236:10 *264:14 0
85 *237:10 *4406:CLK 0
86 *239:10 *264:49 0.000351626
87 *239:20 *264:41 0.000242975
88 *239:20 *264:49 7.73389e-05
89 *245:31 *264:49 0
90 *246:10 *264:49 0.000103841
91 *259:14 *264:140 0.000223043
92 *259:20 *264:88 0.000521896
93 *259:31 *264:8 9.52814e-06
94 *259:31 *264:88 8.264e-05
*RES
1 *4424:X *264:8 39.0979 
2 *264:8 *264:10 4.72286 
3 *264:10 *264:12 3.31429 
4 *264:12 *264:14 8.24429 
5 *264:14 *4406:CLK 44.7943 
6 *264:14 *264:29 15.6214 
7 *264:29 *264:41 48.1664 
8 *264:41 *264:49 40.295 
9 *264:49 *4408:CLK 23 
10 *264:41 *4407:CLK 23 
11 *264:29 *4405:CLK 23 
12 *264:12 *4404:CLK 38 
13 *264:10 *4432:A 39.0979 
14 *264:8 *264:82 1.55357 
15 *264:82 *264:88 24.6943 
16 *264:88 *4416:CLK 24.0979 
17 *264:88 *4417:CLK 23 
18 *264:82 *264:102 2.61 
19 *264:102 *4341:CLK 38 
20 *264:102 *264:117 24.8393 
21 *264:117 *264:119 5.86214 
22 *264:119 *4399:CLK 28.5721 
23 *264:119 *264:140 40.2536 
24 *264:140 *4415:CLK 23 
25 *264:117 *4357:CLK 23 
*END

*D_NET *265 0.015417
*CONN
*I *4418:CLK I *D sky130_fd_sc_hd__dfxtp_1
*I *4403:CLK I *D sky130_fd_sc_hd__dfxtp_1
*I *4339:CLK I *D sky130_fd_sc_hd__dfxtp_1
*I *4352:CLK I *D sky130_fd_sc_hd__dfxtp_1
*I *4344:CLK I *D sky130_fd_sc_hd__dfxtp_1
*I *4342:CLK I *D sky130_fd_sc_hd__dfxtp_1
*I *4340:CLK I *D sky130_fd_sc_hd__dfxtp_2
*I *4351:CLK I *D sky130_fd_sc_hd__dfxtp_1
*I *4433:A I *D sky130_fd_sc_hd__clkinv_2
*I *4400:CLK I *D sky130_fd_sc_hd__dfxtp_1
*I *4401:CLK I *D sky130_fd_sc_hd__dfxtp_1
*I *4402:CLK I *D sky130_fd_sc_hd__dfxtp_1
*I *4425:X O *D sky130_fd_sc_hd__clkbuf_16
*CAP
1 *4418:CLK 0
2 *4403:CLK 0.000302158
3 *4339:CLK 0
4 *4352:CLK 0.000116978
5 *4344:CLK 5.68399e-05
6 *4342:CLK 0
7 *4340:CLK 0
8 *4351:CLK 0.000406013
9 *4433:A 0
10 *4400:CLK 0.000191666
11 *4401:CLK 0
12 *4402:CLK 0.000584271
13 *4425:X 0
14 *265:130 0.000731062
15 *265:119 0.00091234
16 *265:93 0.000409587
17 *265:89 0.000941755
18 *265:57 0.000578113
19 *265:51 0.000384252
20 *265:47 0.000212152
21 *265:18 0.000697129
22 *265:12 0.000818241
23 *265:10 0.000867845
24 *265:4 0.00057668
25 *4344:CLK *362:35 4.67488e-05
26 *4344:CLK *456:12 4.67488e-05
27 *4351:CLK *4351:D 1.64354e-05
28 *4351:CLK *360:75 0
29 *4351:CLK *364:10 1.01436e-05
30 *4351:CLK *456:12 8.92243e-05
31 *4351:CLK *513:8 0.000114177
32 *4351:CLK *514:20 0
33 *4352:CLK *373:48 5.3304e-05
34 *4400:CLK *4137:D_N 0.000195119
35 *4400:CLK *309:6 5.41385e-05
36 *4402:CLK *310:40 5.41288e-05
37 *4403:CLK *368:8 0
38 *265:10 *335:10 0.000663434
39 *265:10 *375:10 3.47781e-05
40 *265:10 *399:8 6.99242e-05
41 *265:12 *309:12 0
42 *265:12 *310:22 0
43 *265:12 *362:70 8.52625e-05
44 *265:12 *375:10 0.000139647
45 *265:51 *4285:D1 0.000267173
46 *265:51 *514:20 0.000224605
47 *265:57 *4101:A 0
48 *265:57 *4285:A2 4.6318e-06
49 *265:57 *4285:D1 1.76557e-05
50 *265:57 *360:75 0
51 *265:57 *513:8 3.98859e-05
52 *265:89 *4155:A 6.17437e-06
53 *265:89 *335:10 0.00026779
54 *265:89 *399:8 5.17689e-05
55 *265:119 *4155:A 0.000154237
56 *265:130 *4155:A 0.000139346
57 *265:130 *368:8 0
58 *265:130 *456:25 2.04774e-05
59 *4290:B *4402:CLK 0.000111215
60 *4290:B *265:18 2.64616e-05
61 *4296:C *4402:CLK 9.84794e-05
62 *4401:D *4402:CLK 0.000129529
63 *4401:D *265:18 2.32004e-05
64 *4402:D *4402:CLK 2.4754e-05
65 *4513:A *4403:CLK 0
66 *5:8 *265:130 0.000162179
67 *78:8 *265:18 0.000140949
68 *95:14 *265:10 0.000357205
69 *100:127 *265:12 0
70 *100:193 *265:93 0.000111279
71 *100:206 *4352:CLK 0.000237525
72 *100:206 *265:93 0.000161888
73 *102:10 *265:10 1.06693e-05
74 *102:10 *265:12 1.7992e-05
75 *124:8 *265:12 0.000138718
76 *133:122 *265:130 4.5051e-05
77 *134:115 *4352:CLK 0.000244517
78 *134:115 *265:93 0.00024944
79 *134:119 *265:93 0.000110922
80 *141:18 *265:12 1.37246e-05
81 *143:24 *4351:CLK 1.14452e-05
82 *224:10 *265:12 0.000164282
83 *224:10 *265:51 2.93747e-05
84 *225:10 *265:12 0
85 *225:48 *4402:CLK 7.73389e-05
86 *226:57 *265:10 0.000193757
87 *226:57 *265:12 0.000213484
88 *228:8 *265:12 0
89 *228:8 *265:18 0
90 *229:10 *265:12 3.70187e-05
91 *229:10 *265:18 0.000219882
92 *259:42 *265:10 0.00015795
93 *259:42 *265:51 0.000126056
94 *259:42 *265:57 5.50106e-05
95 *259:53 *265:10 6.16531e-05
*RES
1 *4425:X *265:4 23 
2 *265:4 *265:10 25.9579 
3 *265:10 *265:12 11.0614 
4 *265:12 *265:18 18.5836 
5 *265:18 *4402:CLK 35.2421 
6 *265:18 *4401:CLK 23 
7 *265:12 *4400:CLK 42.9093 
8 *265:10 *265:47 15 
9 *265:47 *265:51 5.88286 
10 *265:51 *265:57 18.2314 
11 *265:57 *4433:A 38 
12 *265:57 *4351:CLK 45.975 
13 *265:51 *4340:CLK 23 
14 *265:47 *4342:CLK 23 
15 *265:4 *265:89 4.90929 
16 *265:89 *265:93 20.075 
17 *265:93 *4344:CLK 39.0979 
18 *265:93 *4352:CLK 41.9357 
19 *265:89 *265:119 6.73214 
20 *265:119 *4339:CLK 23 
21 *265:119 *265:130 23.7829 
22 *265:130 *4403:CLK 43.7793 
23 *265:130 *4418:CLK 38 
*END

*D_NET *266 0.0182608
*CONN
*I *4366:CLK I *D sky130_fd_sc_hd__dfxtp_1
*I *4368:CLK I *D sky130_fd_sc_hd__dfxtp_1
*I *4434:A I *D sky130_fd_sc_hd__clkbuf_8
*I *4370:CLK I *D sky130_fd_sc_hd__dfxtp_1
*I *4372:CLK I *D sky130_fd_sc_hd__dfxtp_1
*I *4367:CLK I *D sky130_fd_sc_hd__dfxtp_1
*I *4376:CLK I *D sky130_fd_sc_hd__dfxtp_1
*I *4374:CLK I *D sky130_fd_sc_hd__dfxtp_1
*I *4371:CLK I *D sky130_fd_sc_hd__dfxtp_1
*I *4363:CLK I *D sky130_fd_sc_hd__dfxtp_1
*I *4356:CLK I *D sky130_fd_sc_hd__dfxtp_1
*I *4364:CLK I *D sky130_fd_sc_hd__dfxtp_1
*I *4365:CLK I *D sky130_fd_sc_hd__dfxtp_1
*I *4426:X O *D sky130_fd_sc_hd__clkbuf_16
*CAP
1 *4366:CLK 0.00021396
2 *4368:CLK 0
3 *4434:A 0.000142892
4 *4370:CLK 0.000103001
5 *4372:CLK 0
6 *4367:CLK 2.00578e-05
7 *4376:CLK 0.000401505
8 *4374:CLK 0.000321484
9 *4371:CLK 1.97948e-05
10 *4363:CLK 0.000167487
11 *4356:CLK 0
12 *4364:CLK 2.34823e-05
13 *4365:CLK 0.00021898
14 *4426:X 0
15 *266:151 0.000617851
16 *266:104 0.00128989
17 *266:94 0.00122434
18 *266:79 0.00109282
19 *266:66 0.000637267
20 *266:46 0.00042811
21 *266:33 0.000512537
22 *266:22 0.000953698
23 *266:18 0.000668324
24 *266:16 0.000627764
25 *266:12 0.000892446
26 *266:8 0.000713296
27 *266:4 0.000812614
28 *4363:CLK *460:156 1.94693e-05
29 *4363:CLK *508:10 0.000172678
30 *4365:CLK *4165:A1 0.000701923
31 *4365:CLK *307:15 0.000172197
32 *4365:CLK *308:10 7.24365e-05
33 *4366:CLK *490:8 0
34 *4370:CLK *461:25 3.22772e-05
35 *4434:A *468:29 0
36 *266:12 *296:8 2.5415e-05
37 *266:12 *468:29 0
38 *266:16 *4221:A 1.14876e-05
39 *266:16 *461:25 3.06338e-05
40 *266:22 *4526:A 2.49836e-05
41 *266:22 *297:21 0.000357921
42 *266:22 *306:8 0.000193388
43 *266:22 *307:34 0
44 *266:22 *462:8 0
45 *266:22 *486:14 0.000113414
46 *266:22 *486:25 0.000487452
47 *266:33 *4364:D 1.64354e-05
48 *266:33 *307:15 0.000181125
49 *266:46 *487:8 0
50 *266:46 *508:10 0.000166532
51 *266:66 *4526:A 0.000101211
52 *266:66 *457:10 1.02387e-05
53 *266:66 *486:25 0.000242368
54 *266:79 *4463:A 0
55 *266:79 *457:10 6.02277e-06
56 *266:79 *486:25 0.000191166
57 *266:79 *488:134 1.12487e-05
58 *266:104 *4367:D 5.34647e-06
59 *266:104 *4463:A 0
60 *266:104 *4560:A 0
61 *266:104 *268:23 0
62 *266:104 *477:8 0
63 *266:151 *4213:A 0
64 *266:151 *4218:A1 0
65 *266:151 *468:29 0
66 *570:DIODE *4434:A 2.36844e-05
67 *570:DIODE *266:12 1.19796e-05
68 *4203:C1 *4363:CLK 0
69 *4212:C1 *266:104 9.26098e-05
70 *4231:A3 *4374:CLK 1.06779e-05
71 *4365:D *4365:CLK 0.000189681
72 *4371:D *4371:CLK 5.50049e-05
73 *4374:D *4374:CLK 9.0093e-05
74 *4539:A *266:151 4.23817e-05
75 *4580:A *266:46 5.41385e-05
76 *47:8 *4366:CLK 3.46181e-05
77 *48:10 *266:104 9.6289e-05
78 *49:10 *266:151 0.000110922
79 *52:8 *266:79 5.56306e-05
80 *122:80 *266:79 0.000312088
81 *133:38 *4365:CLK 0.000155178
82 *133:38 *266:33 0.000130446
83 *133:38 *266:46 2.31797e-05
84 *134:79 *4371:CLK 1.94693e-05
85 *134:79 *266:8 0.000149736
86 *177:27 *266:79 0
87 *177:80 *4366:CLK 0.000417236
88 *177:80 *266:151 1.14452e-05
89 *178:41 *4370:CLK 0
90 *178:41 *266:16 0.000356597
91 *178:69 *266:79 0.000244526
92 *180:63 *4434:A 0
93 *180:70 *4434:A 5.41288e-05
94 *180:95 *266:151 0
95 *259:14 *266:22 3.81554e-05
96 *259:152 *266:22 7.75329e-06
97 *259:213 *4363:CLK 0
98 *259:213 *266:12 2.22079e-05
*RES
1 *4426:X *266:4 23 
2 *266:4 *266:8 20.8621 
3 *266:8 *266:12 17.9621 
4 *266:12 *266:16 9.44571 
5 *266:16 *266:18 15 
6 *266:18 *266:22 28.5264 
7 *266:22 *4365:CLK 33.1707 
8 *266:22 *266:33 5.38571 
9 *266:33 *4364:CLK 23.4971 
10 *266:33 *266:46 20.2614 
11 *266:46 *4356:CLK 38 
12 *266:46 *4363:CLK 41.5836 
13 *266:18 *266:66 3.31429 
14 *266:66 *4371:CLK 38.6214 
15 *266:66 *266:79 25.3571 
16 *266:79 *4374:CLK 27.3293 
17 *266:79 *266:94 5.075 
18 *266:94 *266:104 46.5714 
19 *266:104 *4376:CLK 30.2914 
20 *266:94 *4367:CLK 23.4971 
21 *266:16 *4372:CLK 23 
22 *266:12 *4370:CLK 25.2371 
23 *266:8 *4434:A 40.6514 
24 *266:4 *266:151 22.54 
25 *266:151 *4368:CLK 38 
26 *266:151 *4366:CLK 43.7793 
*END

*D_NET *267 0.0178714
*CONN
*I *4345:CLK I *D sky130_fd_sc_hd__dfxtp_1
*I *4343:CLK I *D sky130_fd_sc_hd__dfxtp_1
*I *4360:CLK I *D sky130_fd_sc_hd__dfxtp_1
*I *4358:CLK I *D sky130_fd_sc_hd__dfxtp_1
*I *4359:CLK I *D sky130_fd_sc_hd__dfxtp_1
*I *4347:CLK I *D sky130_fd_sc_hd__dfxtp_1
*I *4346:CLK I *D sky130_fd_sc_hd__dfxtp_1
*I *4348:CLK I *D sky130_fd_sc_hd__dfxtp_1
*I *4353:CLK I *D sky130_fd_sc_hd__dfxtp_1
*I *4362:CLK I *D sky130_fd_sc_hd__dfxtp_1
*I *4361:CLK I *D sky130_fd_sc_hd__dfxtp_1
*I *4369:CLK I *D sky130_fd_sc_hd__dfxtp_1
*I *4355:CLK I *D sky130_fd_sc_hd__dfxtp_1
*I *4354:CLK I *D sky130_fd_sc_hd__dfxtp_1
*I *4427:X O *D sky130_fd_sc_hd__clkbuf_16
*CAP
1 *4345:CLK 0
2 *4343:CLK 0.000527562
3 *4360:CLK 0
4 *4358:CLK 0
5 *4359:CLK 2.79296e-05
6 *4347:CLK 3.25412e-05
7 *4346:CLK 0
8 *4348:CLK 0
9 *4353:CLK 0
10 *4362:CLK 0
11 *4361:CLK 6.10379e-05
12 *4369:CLK 0
13 *4355:CLK 0
14 *4354:CLK 0.000243987
15 *4427:X 0
16 *267:159 0.000867716
17 *267:130 0.000681965
18 *267:118 0.00080345
19 *267:116 0.00080333
20 *267:101 0.000650417
21 *267:80 0.000642731
22 *267:72 0.000696485
23 *267:65 0.000694837
24 *267:59 0.000810505
25 *267:57 0.000605085
26 *267:38 0.000194184
27 *267:14 0.000614243
28 *267:12 0.000671985
29 *267:8 0.000446508
30 *267:6 0.000464279
31 *267:4 0.00105407
32 *4347:CLK *4616:A 3.22051e-05
33 *4347:CLK *305:44 1.34995e-05
34 *4354:CLK *4163:A1 4.86324e-05
35 *4354:CLK *4354:D 2.47564e-05
36 *4359:CLK *4194:B 5.50049e-05
37 *267:6 *362:238 0.00013489
38 *267:8 *305:10 1.56762e-05
39 *267:8 *362:238 0.000343508
40 *267:12 *4362:D 0.00014361
41 *267:12 *305:10 8.47575e-05
42 *267:14 *4181:C1 7.37814e-06
43 *267:14 *373:343 0
44 *267:14 *373:355 3.66996e-05
45 *267:14 *460:175 0
46 *267:14 *464:8 0.000113153
47 *267:14 *468:14 0
48 *267:14 *484:10 0
49 *267:14 *485:8 0.000114092
50 *267:38 *460:175 0
51 *267:59 *301:35 0.000188926
52 *267:59 *433:10 0
53 *267:59 *495:12 0
54 *267:65 *4353:D 1.64354e-05
55 *267:65 *330:10 6.16653e-05
56 *267:65 *362:157 0
57 *267:65 *433:10 0
58 *267:65 *478:26 0.000495341
59 *267:65 *495:12 0
60 *267:65 *505:8 0
61 *267:65 *506:10 0
62 *267:72 *478:26 0.000152575
63 *267:80 *4348:D 0.000102738
64 *267:101 *301:35 0.000237534
65 *267:101 *304:10 3.98882e-06
66 *267:101 *495:12 0
67 *267:116 *495:10 0
68 *267:130 *4195:A1 0.000186868
69 *267:130 *301:8 0.000167443
70 *267:130 *362:219 0.000139647
71 *267:159 *4345:D 5.73018e-05
72 *267:159 *362:238 0
73 *267:159 *467:8 3.28979e-05
74 *267:159 *489:23 0
75 led[3] *267:80 0
76 *539:DIODE *267:159 6.07611e-06
77 *571:DIODE *267:8 5.50049e-05
78 *4197:A2 *267:130 0
79 *4361:D *4361:CLK 9.91895e-05
80 *4427:A *267:8 5.50106e-05
81 *4563:A *267:80 0.000181125
82 *4578:A *267:80 7.06078e-05
83 *9:10 *4347:CLK 5.40337e-05
84 *40:8 *267:116 0.000114083
85 *41:8 *267:118 0.000118327
86 *41:8 *267:130 0.000224369
87 *43:8 *267:14 0
88 *97:77 *267:14 8.23069e-05
89 *97:77 *267:38 7.06124e-05
90 *97:128 *267:130 0.000137651
91 *98:10 *267:101 8.4047e-05
92 *100:206 *267:80 3.3123e-05
93 *100:215 *267:80 8.90232e-05
94 *100:234 *267:65 0.000264807
95 *100:245 *267:80 9.63918e-05
96 *100:255 *267:6 0.000137651
97 *100:255 *267:159 4.5051e-05
98 *100:263 *267:59 0
99 *100:263 *267:101 0
100 *133:147 *267:159 0.000238194
101 *133:159 *267:101 4.33876e-05
102 *134:83 *4361:CLK 9.91895e-05
103 *134:93 *267:159 9.25066e-05
104 *134:207 *267:159 0.00012662
105 *143:31 *4354:CLK 0.000141879
106 *143:31 *267:14 0.000168754
107 *143:56 *267:14 4.16933e-05
108 *150:10 *267:65 0.000227633
109 *150:10 *267:72 6.69899e-05
110 *161:8 *4354:CLK 0
111 *161:8 *267:14 0
*RES
1 *4427:X *267:4 23 
2 *267:4 *267:6 4.43286 
3 *267:6 *267:8 6.815 
4 *267:8 *267:12 18.48 
5 *267:12 *267:14 8.59643 
6 *267:14 *4354:CLK 42.8057 
7 *267:14 *4355:CLK 38 
8 *267:12 *267:38 17.9621 
9 *267:38 *4369:CLK 23 
10 *267:38 *4361:CLK 25.0507 
11 *267:8 *4362:CLK 23 
12 *267:6 *267:57 15 
13 *267:57 *267:59 2.96214 
14 *267:59 *267:65 29.935 
15 *267:65 *4353:CLK 23 
16 *267:65 *267:72 2.05071 
17 *267:72 *267:80 43.0707 
18 *267:80 *4348:CLK 23 
19 *267:72 *4346:CLK 23 
20 *267:59 *4347:CLK 39.0979 
21 *267:57 *267:101 8.94857 
22 *267:101 *4359:CLK 38.6214 
23 *267:101 *267:116 17.755 
24 *267:116 *267:118 2.52714 
25 *267:118 *267:130 42.4493 
26 *267:130 *4358:CLK 23 
27 *267:118 *4360:CLK 23 
28 *267:116 *4343:CLK 31.7207 
29 *267:4 *267:159 46.6957 
30 *267:159 *4345:CLK 23 
*END

*D_NET *268 0.00284062
*CONN
*I *4140:C I *D sky130_fd_sc_hd__or4b_1
*I *4463:A I *D sky130_fd_sc_hd__dlygate4sd3_1
*I *4374:Q O *D sky130_fd_sc_hd__dfxtp_1
*CAP
1 *4140:C 0
2 *4463:A 0.000312883
3 *4374:Q 0
4 *268:23 0.00063117
5 *268:6 0.000944053
6 *4463:A *477:8 0
7 *268:23 *4140:A 6.69016e-05
8 *268:23 *4140:D_N 0.0002263
9 *268:23 *4232:A 0.000189118
10 *268:23 *365:6 9.91895e-05
11 *268:23 *379:40 9.69279e-05
12 *268:23 *477:8 0
13 *4212:C1 *4463:A 0
14 *4232:D *268:23 0
15 *122:80 *4463:A 0
16 *177:72 *4463:A 0.000274078
17 *266:79 *4463:A 0
18 *266:104 *4463:A 0
19 *266:104 *268:23 0
*RES
1 *4374:Q *268:6 38 
2 *268:6 *4463:A 44.67 
3 *268:6 *268:23 29.3136 
4 *268:23 *4140:C 23 
*END

*D_NET *269 0.000970514
*CONN
*I *4448:A I *D sky130_fd_sc_hd__dlygate4sd3_1
*I *4375:Q O *D sky130_fd_sc_hd__dfxtp_1
*CAP
1 *4448:A 0
2 *4375:Q 0.00039237
3 *269:10 0.00039237
4 *269:10 *4140:D_N 4.6318e-06
5 *269:10 *379:32 0
6 *189:10 *269:10 9.84851e-05
7 *190:10 *269:10 8.26569e-05
*RES
1 *4375:Q *269:10 43.8207 
2 *269:10 *4448:A 38 
*END

*D_NET *270 0.00435464
*CONN
*I *4464:A I *D sky130_fd_sc_hd__dlygate4sd3_1
*I *4237:A1 I *D sky130_fd_sc_hd__a21o_1
*I *4238:B I *D sky130_fd_sc_hd__nand3_1
*I *4140:A I *D sky130_fd_sc_hd__or4b_1
*I *4376:Q O *D sky130_fd_sc_hd__dfxtp_1
*CAP
1 *4464:A 0.000105547
2 *4237:A1 0.000176285
3 *4238:B 0.000164493
4 *4140:A 0.000333209
5 *4376:Q 0.00012572
6 *270:16 0.000645944
7 *270:10 0.000554045
8 *270:8 0.000460784
9 *4140:A *4140:D_N 0.000240093
10 *4140:A *357:8 2.24973e-05
11 *4140:A *365:6 2.07242e-05
12 *4140:A *365:14 4.04598e-06
13 *4140:A *379:40 0.000355822
14 *4237:A1 *4237:B1 0.000140259
15 *4238:B *4234:A 0.000228903
16 *4238:B *4238:A 0.000202834
17 *4464:A *358:8 0
18 *4464:A *380:10 0
19 *270:10 *357:8 3.70187e-05
20 *270:10 *380:10 0
21 *270:16 *357:8 0.000116408
22 *4236:A *4238:B 0.000270682
23 *4238:C *4238:B 1.76557e-05
24 *4239:A *270:10 0
25 *4239:A *270:16 0
26 *57:8 *270:10 0
27 *188:32 *4140:A 0
28 *192:46 *4140:A 0
29 *195:10 *4237:A1 8.06804e-06
30 *196:10 *4238:B 5.67058e-05
31 *268:23 *4140:A 6.69016e-05
*RES
1 *4376:Q *270:8 39.5743 
2 *270:8 *270:10 4.37071 
3 *270:10 *270:16 2.67214 
4 *270:16 *4140:A 46.4721 
5 *270:16 *4238:B 43.8621 
6 *270:10 *4237:A1 41.0036 
7 *270:8 *4464:A 39.9057 
*END

*D_NET *271 0.000156484
*CONN
*I *4441:A I *D sky130_fd_sc_hd__dlygate4sd3_1
*I *4377:Q O *D sky130_fd_sc_hd__dfxtp_1
*CAP
1 *4441:A 5.07367e-05
2 *4377:Q 5.07367e-05
3 *195:10 *4441:A 5.50106e-05
*RES
1 *4377:Q *4441:A 47.1186 
*END

*D_NET *272 0.00197248
*CONN
*I *4471:A I *D sky130_fd_sc_hd__dlygate4sd3_1
*I *4378:Q O *D sky130_fd_sc_hd__dfxtp_1
*CAP
1 *4471:A 0.000233238
2 *4378:Q 6.60141e-05
3 *272:8 0.000299252
4 *4471:A *4240:A 0.000168985
5 *4471:A *441:6 8.25584e-05
6 *272:8 *4133:B 5.80963e-05
7 *54:8 *4471:A 0.000654928
8 *97:22 *272:8 0
9 *187:6 *4471:A 0.000361027
10 *259:160 *272:8 4.83778e-05
*RES
1 *4378:Q *272:8 39.9057 
2 *272:8 *4471:A 47.1971 
*END

*D_NET *273 0.0038968
*CONN
*I *4516:A I *D sky130_fd_sc_hd__dlygate4sd3_1
*I *4110:C I *D sky130_fd_sc_hd__or4b_1
*I *4103:B I *D sky130_fd_sc_hd__or2_1
*I *4379:Q O *D sky130_fd_sc_hd__dfxtp_1
*CAP
1 *4516:A 9.4103e-05
2 *4110:C 0.00017564
3 *4103:B 0.000211066
4 *4379:Q 0.000174125
5 *273:12 0.000648758
6 *273:10 0.000530281
7 *4103:B *278:12 6.25829e-05
8 *4110:C *4110:B 5.41288e-05
9 *4110:C *276:33 4.95081e-05
10 *4110:C *277:14 5.67058e-05
11 *4110:C *278:12 0.000116554
12 *273:12 *4593:A 0.000286822
13 *273:12 *278:12 8.9458e-05
14 *4244:A_N *4516:A 5.3304e-05
15 *4244:C *4516:A 7.44257e-05
16 *4244:C *273:12 7.91596e-05
17 *60:8 *273:10 0
18 *113:8 *4103:B 0.000137651
19 *134:40 *273:10 0
20 *134:40 *273:12 0
21 *140:66 *4110:C 4.9662e-05
22 *140:181 *273:12 0.000118807
23 *198:6 *4516:A 0.000216471
24 *198:19 *273:10 3.47781e-05
25 *198:19 *273:12 0.000191157
26 *200:23 *4103:B 0.000197418
27 *200:23 *273:12 0.000181952
28 *201:10 *273:12 1.22803e-05
*RES
1 *4379:Q *273:10 40.8793 
2 *273:10 *273:12 8.59643 
3 *273:12 *4103:B 42.5364 
4 *273:12 *4110:C 42.4329 
5 *273:10 *4516:A 41.0036 
*END

*D_NET *274 0.00468554
*CONN
*I *4475:A I *D sky130_fd_sc_hd__dlygate4sd3_1
*I *4119:C_N I *D sky130_fd_sc_hd__or4bb_1
*I *4117:A I *D sky130_fd_sc_hd__or4bb_1
*I *4112:D_N I *D sky130_fd_sc_hd__or4b_1
*I *4104:C I *D sky130_fd_sc_hd__or4b_1
*I *4389:Q O *D sky130_fd_sc_hd__dfxtp_1
*CAP
1 *4475:A 0
2 *4119:C_N 8.28549e-05
3 *4117:A 0
4 *4112:D_N 0.000160358
5 *4104:C 0.000120849
6 *4389:Q 0.000455644
7 *274:20 0.000338941
8 *274:16 0.000389714
9 *274:8 0.000704768
10 *4104:C *4104:D_N 9.67842e-05
11 *4104:C *4117:B 2.71291e-05
12 *4104:C *285:44 9.84794e-05
13 *4112:D_N *4104:D_N 5.3304e-05
14 *4112:D_N *275:18 0.000140259
15 *4112:D_N *284:65 5.50049e-05
16 *4112:D_N *285:38 1.56762e-05
17 *4119:C_N *4119:B 0.000173452
18 *274:8 *4273:B 3.22879e-05
19 *274:8 *391:6 8.60475e-05
20 *274:8 *391:14 0.000136738
21 *274:16 *4119:B 4.67488e-05
22 *274:16 *275:10 0.000207447
23 *274:16 *275:12 3.31127e-05
24 *274:16 *275:18 6.07611e-06
25 *274:20 *4117:B 2.45709e-05
26 *4113:D *4119:C_N 0.000269775
27 *4476:A *274:8 7.88828e-05
28 *70:10 *274:8 1.32939e-05
29 *112:8 *274:20 0.000116314
30 *117:14 *4104:C 5.70419e-05
31 *140:89 *274:16 8.40914e-05
32 *140:100 *4104:C 6.16439e-05
33 *140:100 *274:16 0.000219891
34 *140:100 *274:20 0.000157309
35 *221:10 *274:8 0.000141052
*RES
1 *4389:Q *274:8 32.2179 
2 *274:8 *274:16 37.2293 
3 *274:16 *274:20 17.2579 
4 *274:20 *4104:C 41.3764 
5 *274:20 *4112:D_N 41.0036 
6 *274:16 *4117:A 23 
7 *274:16 *4119:C_N 26.48 
8 *274:8 *4475:A 23 
*END

*D_NET *275 0.0042497
*CONN
*I *4453:A I *D sky130_fd_sc_hd__dlygate4sd3_1
*I *4119:B I *D sky130_fd_sc_hd__or4bb_1
*I *4117:D_N I *D sky130_fd_sc_hd__or4bb_1
*I *4104:D_N I *D sky130_fd_sc_hd__or4b_1
*I *4112:A I *D sky130_fd_sc_hd__or4b_1
*I *4390:Q O *D sky130_fd_sc_hd__dfxtp_1
*CAP
1 *4453:A 0.00017348
2 *4119:B 0.000427729
3 *4117:D_N 0
4 *4104:D_N 6.52064e-05
5 *4112:A 0
6 *4390:Q 6.38967e-05
7 *275:18 0.000220966
8 *275:12 0.000183427
9 *275:10 0.00101951
10 *275:6 0.000801494
11 *4104:D_N *285:44 1.56762e-05
12 *4119:B *277:45 5.41385e-05
13 *275:6 *369:10 2.30292e-05
14 *275:10 *391:25 0
15 *275:18 *284:65 1.01436e-05
16 *275:18 *285:38 0.00010018
17 *275:18 *285:44 2.18409e-05
18 *275:18 *286:25 0
19 *4104:C *4104:D_N 9.67842e-05
20 *4112:D_N *4104:D_N 5.3304e-05
21 *4112:D_N *275:18 0.000140259
22 *4113:D *4119:B 2.25809e-05
23 *4119:C_N *4119:B 0.000173452
24 *4276:A *275:10 0
25 *140:100 *275:18 5.86432e-05
26 *140:169 *275:10 0
27 *213:49 *275:10 0
28 *213:49 *275:12 0
29 *218:8 *275:10 7.03766e-05
30 *219:39 *275:10 0
31 *221:10 *275:10 0.000160191
32 *274:16 *4119:B 4.67488e-05
33 *274:16 *275:10 0.000207447
34 *274:16 *275:12 3.31127e-05
35 *274:16 *275:18 6.07611e-06
*RES
1 *4390:Q *275:6 24.0979 
2 *275:6 *275:10 26.4136 
3 *275:10 *275:12 0.849286 
4 *275:12 *275:18 19.1843 
5 *275:18 *4112:A 23 
6 *275:18 *4104:D_N 24.5743 
7 *275:12 *4117:D_N 38 
8 *275:10 *4119:B 45.7886 
9 *275:6 *4453:A 26.0243 
*END

*D_NET *276 0.00782341
*CONN
*I *4110:D_N I *D sky130_fd_sc_hd__or4b_1
*I *4114:B I *D sky130_fd_sc_hd__or4bb_1
*I *4119:D_N I *D sky130_fd_sc_hd__or4bb_1
*I *4104:B I *D sky130_fd_sc_hd__or4b_1
*I *4597:A I *D sky130_fd_sc_hd__dlygate4sd3_1
*I *4391:Q O *D sky130_fd_sc_hd__dfxtp_1
*CAP
1 *4110:D_N 0
2 *4114:B 0
3 *4119:D_N 0
4 *4104:B 5.51789e-05
5 *4597:A 0
6 *4391:Q 0.000569196
7 *276:54 0.000173838
8 *276:39 0.000693511
9 *276:33 0.000856919
10 *276:23 0.0011094
11 *276:10 0.00128617
12 *4104:B *277:45 2.93747e-05
13 *276:10 *4391:D 0.000213352
14 *276:10 *344:10 0.000114595
15 *276:23 *277:8 6.68793e-05
16 *276:23 *277:14 0.000201464
17 *276:23 *402:8 0
18 *276:33 *4114:A 0.000242657
19 *276:33 *277:14 0.000112665
20 *276:33 *277:18 0.00019747
21 *276:33 *278:25 0
22 *276:33 *400:27 0
23 *276:39 *277:45 2.93845e-05
24 *276:54 *4117:B 0
25 *276:54 *277:45 0.000191166
26 *4108:A *276:33 5.50049e-05
27 *4108:A *276:39 0.000446983
28 *4108:B *276:39 9.84794e-05
29 *4110:C *276:33 4.95081e-05
30 *4276:A *276:10 0.000177899
31 *4391:CLK *276:10 5.50049e-05
32 *107:10 *276:54 1.69668e-05
33 *109:8 *276:33 0.00026599
34 *111:8 *276:33 3.47879e-05
35 *117:10 *276:54 0
36 *117:14 *276:39 6.30189e-05
37 *134:40 *276:23 0.000416539
38 *134:40 *276:33 0
*RES
1 *4391:Q *276:10 34.6207 
2 *276:10 *4597:A 23 
3 *276:10 *276:23 46.4471 
4 *276:23 *276:33 39.86 
5 *276:33 *276:39 8.41 
6 *276:39 *4104:B 24.1186 
7 *276:39 *276:54 33.3143 
8 *276:54 *4119:D_N 23 
9 *276:33 *4114:B 23 
10 *276:23 *4110:D_N 23 
*END

*D_NET *277 0.00442983
*CONN
*I *4484:A I *D sky130_fd_sc_hd__dlygate4sd3_1
*I *4110:A I *D sky130_fd_sc_hd__or4b_1
*I *4119:A I *D sky130_fd_sc_hd__or4bb_1
*I *4104:A I *D sky130_fd_sc_hd__or4b_1
*I *4114:A I *D sky130_fd_sc_hd__or4bb_1
*I *4392:Q O *D sky130_fd_sc_hd__dfxtp_1
*CAP
1 *4484:A 5.13614e-05
2 *4110:A 0
3 *4119:A 0
4 *4104:A 0
5 *4114:A 0.000132784
6 *4392:Q 9.06703e-05
7 *277:45 0.000193253
8 *277:35 0.00048369
9 *277:18 0.000506028
10 *277:14 0.000449734
11 *277:8 0.00050896
12 *277:8 *402:8 0
13 *277:14 *400:27 0
14 *277:14 *402:8 0
15 *4104:B *277:45 2.93747e-05
16 *4110:C *277:14 5.67058e-05
17 *4113:A *277:35 1.24376e-05
18 *4113:D *277:35 0.000222786
19 *4113:D *277:45 0.00014196
20 *4119:B *277:45 5.41385e-05
21 *4422:A *4484:A 9.67842e-05
22 *107:10 *277:45 4.6318e-06
23 *110:8 *277:18 4.334e-05
24 *111:8 *4114:A 0.000193379
25 *113:8 *277:35 2.02517e-05
26 *117:14 *277:45 9.58714e-05
27 *119:8 *277:45 0
28 *276:23 *277:8 6.68793e-05
29 *276:23 *277:14 0.000201464
30 *276:33 *4114:A 0.000242657
31 *276:33 *277:14 0.000112665
32 *276:33 *277:18 0.00019747
33 *276:39 *277:45 2.93845e-05
34 *276:54 *277:45 0.000191166
*RES
1 *4392:Q *277:8 39.9057 
2 *277:8 *277:14 22.3536 
3 *277:14 *277:18 17.61 
4 *277:18 *4114:A 41.3143 
5 *277:18 *277:35 21.8564 
6 *277:35 *277:45 35.2821 
7 *277:45 *4104:A 23 
8 *277:35 *4119:A 23 
9 *277:14 *4110:A 23 
10 *277:8 *4484:A 39.0979 
*END

*D_NET *278 0.00249472
*CONN
*I *4593:A I *D sky130_fd_sc_hd__dlygate4sd3_1
*I *4103:A I *D sky130_fd_sc_hd__or2_1
*I *4110:B I *D sky130_fd_sc_hd__or4b_1
*I *4380:Q O *D sky130_fd_sc_hd__dfxtp_1
*CAP
1 *4593:A 0.000288229
2 *4103:A 0
3 *4110:B 7.37141e-05
4 *4380:Q 0
5 *278:25 9.46832e-05
6 *278:12 0.000471122
7 *278:6 0.000590954
8 *4593:A *4245:A1 0
9 *4593:A *4246:A1 1.5769e-05
10 *4593:A *432:12 0
11 *4103:B *278:12 6.25829e-05
12 *4110:C *4110:B 5.41288e-05
13 *4110:C *278:12 0.000116554
14 *134:22 *278:25 7.5783e-05
15 *134:40 *278:25 7.48331e-05
16 *140:66 *278:12 8.06804e-06
17 *201:10 *4593:A 0.000192022
18 *273:12 *4593:A 0.000286822
19 *273:12 *278:12 8.9458e-05
20 *276:33 *278:25 0
*RES
1 *4380:Q *278:6 38 
2 *278:6 *278:12 19.9093 
3 *278:12 *4110:B 24.0979 
4 *278:12 *278:25 32.2579 
5 *278:25 *4103:A 23 
6 *278:6 *4593:A 43.9657 
*END

*D_NET *279 0.00543063
*CONN
*I *4581:A I *D sky130_fd_sc_hd__dlygate4sd3_1
*I *4111:C I *D sky130_fd_sc_hd__or4b_1
*I *4114:D_N I *D sky130_fd_sc_hd__or4bb_1
*I *4116:B I *D sky130_fd_sc_hd__or4bb_1
*I *4106:C I *D sky130_fd_sc_hd__nand4b_1
*I *4381:Q O *D sky130_fd_sc_hd__dfxtp_1
*CAP
1 *4581:A 0
2 *4111:C 2.34823e-05
3 *4114:D_N 0.000224133
4 *4116:B 0
5 *4106:C 0
6 *4381:Q 0
7 *279:66 0.0002853
8 *279:26 0.000398606
9 *279:18 0.000608831
10 *279:12 0.000587519
11 *279:8 0.000543819
12 *279:4 0.000652475
13 *4114:D_N *4109:A 0.000114092
14 *4114:D_N *4114:C_N 5.50049e-05
15 *279:12 *4111:B 2.98648e-05
16 *279:12 *4116:D_N 5.3304e-05
17 *279:12 *280:20 2.02872e-05
18 *279:18 *4109:A 2.46345e-05
19 *279:18 *4111:B 0.000215671
20 *279:18 *281:43 8.4047e-05
21 *279:18 *282:43 1.32314e-05
22 *279:26 *282:43 0.00014196
23 *279:26 *283:75 0
24 *279:26 *284:36 0
25 *279:26 *284:49 0
26 *279:66 *510:6 9.84851e-05
27 *279:66 *510:14 0
28 *4248:A2 *279:66 6.70749e-05
29 *4248:B1 *279:66 0.000481543
30 *106:10 *4114:D_N 0
31 *106:10 *279:18 0
32 *106:10 *279:26 3.83778e-05
33 *111:8 *4114:D_N 0.000142305
34 *116:10 *4114:D_N 0.000107641
35 *117:14 *4114:D_N 5.50049e-05
36 *119:8 *4114:D_N 0
37 *121:10 *279:66 0.00029117
38 *200:25 *279:66 4.48671e-05
39 *202:10 *279:66 2.79004e-05
*RES
1 *4381:Q *279:4 23 
2 *279:4 *279:8 5.40643 
3 *279:8 *279:12 17.5271 
4 *279:12 *279:18 19.0807 
5 *279:18 *279:26 35.7379 
6 *279:26 *4106:C 23 
7 *279:18 *4116:B 23 
8 *279:12 *4114:D_N 44.0486 
9 *279:8 *4111:C 23.4971 
10 *279:4 *279:66 39.8393 
11 *279:66 *4581:A 23 
*END

*D_NET *280 0.00237627
*CONN
*I *4550:A I *D sky130_fd_sc_hd__dlygate4sd3_1
*I *4116:C_N I *D sky130_fd_sc_hd__or4bb_1
*I *4382:Q O *D sky130_fd_sc_hd__dfxtp_1
*CAP
1 *4550:A 0
2 *4116:C_N 0
3 *4382:Q 8.63323e-05
4 *280:20 0.000294443
5 *280:12 0.000552746
6 *280:8 0.000344634
7 *280:12 *4105:B 0.000238617
8 *280:20 *4111:B 9.41704e-05
9 *280:20 *4116:D_N 5.3304e-05
10 *280:20 *281:23 0.000239234
11 *280:20 *281:43 0.000185755
12 *280:20 *284:29 9.95882e-05
13 *280:20 *480:32 0
14 *4250:A2 *280:12 9.67842e-05
15 *134:22 *280:20 0
16 *200:29 *280:8 7.03766e-05
17 *203:8 *280:8 0
18 *279:12 *280:20 2.02872e-05
*RES
1 *4382:Q *280:8 39.9057 
2 *280:8 *280:12 20.8621 
3 *280:12 *280:20 36.8771 
4 *280:20 *4116:C_N 23 
5 *280:12 *4550:A 23 
*END

*D_NET *281 0.00527603
*CONN
*I *4109:A I *D sky130_fd_sc_hd__nand2_1
*I *4116:D_N I *D sky130_fd_sc_hd__or4bb_1
*I *4115:C I *D sky130_fd_sc_hd__or4b_1
*I *4106:A_N I *D sky130_fd_sc_hd__nand4b_1
*I *4468:A I *D sky130_fd_sc_hd__dlygate4sd3_1
*I *4383:Q O *D sky130_fd_sc_hd__dfxtp_1
*CAP
1 *4109:A 0.000166557
2 *4116:D_N 4.59338e-05
3 *4115:C 0
4 *4106:A_N 7.94778e-05
5 *4468:A 0
6 *4383:Q 0.00041788
7 *281:43 0.000343595
8 *281:27 0.000115872
9 *281:23 0.000601023
10 *281:10 0.000851405
11 *4106:A_N *4106:D 7.02396e-05
12 *4106:A_N *283:75 0.000271476
13 *4106:A_N *284:16 6.87362e-05
14 *4109:A *284:29 2.76611e-06
15 *4109:A *480:32 0
16 *4116:D_N *4111:B 2.32004e-05
17 *281:10 *385:12 9.35752e-05
18 *281:10 *434:20 3.46445e-05
19 *281:23 *282:19 0
20 *281:23 *282:43 0
21 *281:23 *385:12 4.21594e-06
22 *281:27 *283:75 5.67058e-05
23 *281:27 *283:90 0.000172197
24 *281:27 *284:16 1.22822e-05
25 *281:27 *284:29 0.000185428
26 *281:43 *282:43 0
27 *281:43 *284:29 6.7177e-06
28 *4114:D_N *4109:A 0.000114092
29 *4121:A *4109:A 0.000133101
30 *4383:CLK *281:23 0
31 *105:8 *281:23 5.285e-05
32 *111:8 *4109:A 8.85189e-05
33 *121:10 *4109:A 8.24662e-05
34 *134:22 *281:23 0
35 *205:14 *281:10 0.000277705
36 *205:14 *281:23 0.000263089
37 *260:75 *281:23 0
38 *279:12 *4116:D_N 5.3304e-05
39 *279:18 *4109:A 2.46345e-05
40 *279:18 *281:43 8.4047e-05
41 *280:20 *4116:D_N 5.3304e-05
42 *280:20 *281:23 0.000239234
43 *280:20 *281:43 0.000185755
*RES
1 *4383:Q *281:10 45.6229 
2 *281:10 *4468:A 38 
3 *281:10 *281:23 9.715 
4 *281:23 *281:27 17.5271 
5 *281:27 *4106:A_N 26.5007 
6 *281:27 *4115:C 23 
7 *281:23 *281:43 2.96214 
8 *281:43 *4116:D_N 39.0979 
9 *281:43 *4109:A 42.6193 
*END

*D_NET *282 0.00352576
*CONN
*I *4111:B I *D sky130_fd_sc_hd__or4b_1
*I *4116:A I *D sky130_fd_sc_hd__or4bb_1
*I *4115:D_N I *D sky130_fd_sc_hd__or4b_1
*I *4106:D I *D sky130_fd_sc_hd__nand4b_1
*I *4465:A I *D sky130_fd_sc_hd__dlygate4sd3_1
*I *4384:Q O *D sky130_fd_sc_hd__dfxtp_1
*CAP
1 *4111:B 0.00019416
2 *4116:A 4.01155e-05
3 *4115:D_N 0
4 *4106:D 6.62838e-05
5 *4465:A 0.000115809
6 *4384:Q 0.000158818
7 *282:43 0.000434331
8 *282:21 6.62838e-05
9 *282:19 0.000654565
10 *282:6 0.000729136
11 *4106:D *283:75 1.76557e-05
12 *4106:D *284:16 0.000141954
13 *4465:A *381:27 7.59964e-05
14 *282:6 *381:27 8.85299e-06
15 *282:19 *381:14 5.31444e-05
16 *282:19 *480:16 0
17 *4106:A_N *4106:D 7.02396e-05
18 *4116:D_N *4111:B 2.32004e-05
19 *105:8 *282:19 0
20 *105:14 *282:19 0
21 *106:10 *282:43 5.21127e-05
22 *116:10 *4111:B 4.39278e-05
23 *116:10 *282:43 3.06338e-05
24 *208:8 *282:19 0
25 *260:12 *282:19 5.36457e-05
26 *279:12 *4111:B 2.98648e-05
27 *279:18 *4111:B 0.000215671
28 *279:18 *282:43 1.32314e-05
29 *279:26 *282:43 0.00014196
30 *280:20 *4111:B 9.41704e-05
31 *281:23 *282:19 0
32 *281:23 *282:43 0
33 *281:43 *282:43 0
*RES
1 *4384:Q *282:6 25.0507 
2 *282:6 *4465:A 25.9 
3 *282:6 *282:19 22.54 
4 *282:19 *282:21 15 
5 *282:21 *4106:D 25.5686 
6 *282:21 *4115:D_N 23 
7 *282:19 *282:43 19.1843 
8 *282:43 *4116:A 23.8493 
9 *282:43 *4111:B 27.93 
*END

*D_NET *283 0.00842268
*CONN
*I *4111:D_N I *D sky130_fd_sc_hd__or4b_1
*I *4115:B I *D sky130_fd_sc_hd__or4b_1
*I *4107:C I *D sky130_fd_sc_hd__or4b_1
*I *4265:C I *D sky130_fd_sc_hd__and4_1
*I *4120:D_N I *D sky130_fd_sc_hd__or4b_1
*I *4262:B I *D sky130_fd_sc_hd__and3_1
*I *4509:A I *D sky130_fd_sc_hd__dlygate4sd3_1
*I *4385:Q O *D sky130_fd_sc_hd__dfxtp_1
*CAP
1 *4111:D_N 0
2 *4115:B 2.34823e-05
3 *4107:C 2.34823e-05
4 *4265:C 0
5 *4120:D_N 0.000260494
6 *4262:B 0.000195782
7 *4509:A 0
8 *4385:Q 0.000171151
9 *283:90 0.000281084
10 *283:75 0.000886367
11 *283:58 0.000994492
12 *283:49 0.000389209
13 *283:34 0.000432705
14 *283:23 0.000756796
15 *283:10 0.000559954
16 *4120:D_N *4265:B 3.26321e-05
17 *4120:D_N *286:6 5.41288e-05
18 *4120:D_N *419:10 0
19 *283:23 *410:14 0.000111276
20 *283:23 *410:20 0
21 *283:23 *412:8 5.07182e-05
22 *283:34 *4265:B 0.000280481
23 *283:34 *410:14 1.01436e-05
24 *283:58 *4107:D_N 2.32101e-05
25 *283:58 *376:6 0.000139352
26 *283:58 *376:19 0.000128723
27 *283:75 *4107:A 5.67058e-05
28 *283:75 *284:16 8.7843e-05
29 *283:75 *284:49 0.000117239
30 *283:90 *284:29 6.53382e-05
31 *283:90 *480:32 6.7177e-06
32 *4106:A_N *283:75 0.000271476
33 *4106:D *283:75 1.76557e-05
34 *4260:A2 *283:10 2.61699e-05
35 *4260:A2 *283:23 4.21594e-06
36 *4265:D *283:34 0
37 *4269:B1 *4120:D_N 0
38 *4384:CLK *283:10 3.34247e-05
39 *4386:CLK *283:23 3.3123e-05
40 *106:10 *283:75 0.00016279
41 *115:10 *283:90 0.000563761
42 *120:16 *283:58 5.78923e-05
43 *120:16 *283:75 4.36915e-05
44 *134:22 *283:90 9.98995e-05
45 *140:108 *283:23 0
46 *207:19 *283:10 2.29192e-05
47 *207:36 *283:23 0
48 *211:21 *4262:B 0.00026808
49 *212:10 *283:23 4.07506e-05
50 *212:10 *283:34 3.35885e-05
51 *213:49 *4120:D_N 0.000216721
52 *260:24 *283:10 8.05936e-05
53 *260:24 *283:23 6.42902e-05
54 *260:37 *283:10 1.32314e-05
55 *279:26 *283:75 0
56 *281:27 *283:75 5.67058e-05
57 *281:27 *283:90 0.000172197
*RES
1 *4385:Q *283:10 41.3557 
2 *283:10 *4509:A 38 
3 *283:10 *283:23 7.72643 
4 *283:23 *4262:B 41.0036 
5 *283:23 *283:34 4.01857 
6 *283:34 *4120:D_N 43.7379 
7 *283:34 *283:49 15 
8 *283:49 *4265:C 23 
9 *283:49 *283:58 5.88286 
10 *283:58 *4107:C 23.4971 
11 *283:58 *283:75 43.5886 
12 *283:75 *4115:B 23.4971 
13 *283:75 *283:90 38.4721 
14 *283:90 *4111:D_N 23 
*END

*D_NET *284 0.00591959
*CONN
*I *4107:B I *D sky130_fd_sc_hd__or4b_1
*I *4120:C I *D sky130_fd_sc_hd__or4b_1
*I *4494:A I *D sky130_fd_sc_hd__dlygate4sd3_1
*I *4111:A I *D sky130_fd_sc_hd__or4b_1
*I *4115:A I *D sky130_fd_sc_hd__or4b_1
*I *4386:Q O *D sky130_fd_sc_hd__dfxtp_1
*CAP
1 *4107:B 0
2 *4120:C 0
3 *4494:A 0
4 *4111:A 0
5 *4115:A 0
6 *4386:Q 0.000205927
7 *284:65 0.00037373
8 *284:49 0.000737906
9 *284:36 0.000410923
10 *284:29 0.000322579
11 *284:16 0.000949169
12 *284:10 0.000879263
13 *284:29 *480:32 0.000116831
14 *284:36 *480:16 0
15 *284:49 *4107:A 4.43717e-05
16 *284:65 *4107:D_N 0
17 *284:65 *4112:B 1.21972e-05
18 *284:65 *285:38 0.000133765
19 *284:65 *286:6 1.94693e-05
20 *284:65 *286:8 1.73222e-05
21 *284:65 *286:25 0
22 *4106:A_N *284:16 6.87362e-05
23 *4106:D *284:16 0.000141954
24 *4109:A *284:29 2.76611e-06
25 *4112:D_N *284:65 5.50049e-05
26 *120:8 *284:65 4.334e-05
27 *120:16 *284:49 6.68822e-05
28 *120:16 *284:65 5.70419e-05
29 *140:100 *284:49 0.000300117
30 *140:100 *284:65 0
31 *140:108 *284:10 8.85189e-05
32 *140:108 *284:36 7.90161e-05
33 *140:108 *284:49 0.000186025
34 *260:20 *284:10 2.21565e-05
35 *275:18 *284:65 1.01436e-05
36 *279:26 *284:36 0
37 *279:26 *284:49 0
38 *280:20 *284:29 9.95882e-05
39 *281:27 *284:16 1.22822e-05
40 *281:27 *284:29 0.000185428
41 *281:43 *284:29 6.7177e-06
42 *283:75 *284:16 8.7843e-05
43 *283:75 *284:49 0.000117239
44 *283:90 *284:29 6.53382e-05
*RES
1 *4386:Q *284:10 41.2521 
2 *284:10 *284:16 24.57 
3 *284:16 *4115:A 23 
4 *284:16 *284:29 36.7943 
5 *284:29 *4111:A 23 
6 *284:10 *284:36 1.20143 
7 *284:36 *4494:A 38 
8 *284:36 *284:49 23.0579 
9 *284:49 *284:65 37.0221 
10 *284:65 *4120:C 23 
11 *284:49 *4107:B 23 
*END

*D_NET *285 0.0046649
*CONN
*I *4112:C I *D sky130_fd_sc_hd__or4b_1
*I *4117:B I *D sky130_fd_sc_hd__or4bb_1
*I *4107:A I *D sky130_fd_sc_hd__or4b_1
*I *4120:B I *D sky130_fd_sc_hd__or4b_1
*I *4459:A I *D sky130_fd_sc_hd__dlygate4sd3_1
*I *4387:Q O *D sky130_fd_sc_hd__dfxtp_1
*CAP
1 *4112:C 0
2 *4117:B 0.000262979
3 *4107:A 0.000142446
4 *4120:B 0
5 *4459:A 0
6 *4387:Q 0.000211074
7 *285:44 0.000533141
8 *285:38 0.000287178
9 *285:23 0.000654582
10 *285:10 0.000706194
11 *285:23 *286:6 0.000523716
12 *285:38 *4107:D_N 6.16531e-05
13 *285:38 *4112:B 0.000181125
14 *285:38 *286:6 1.24376e-05
15 *285:44 *4112:B 4.00259e-06
16 *285:44 *286:8 0
17 *4104:C *4117:B 2.71291e-05
18 *4104:C *285:44 9.84794e-05
19 *4104:D_N *285:44 1.56762e-05
20 *4112:D_N *285:38 1.56762e-05
21 *4267:A *285:10 0
22 *4267:A *285:23 0
23 *4269:B1 *285:10 7.03766e-05
24 *4269:B1 *285:23 8.16253e-05
25 *107:10 *4107:A 0
26 *112:8 *4117:B 0.000114083
27 *117:10 *4117:B 0.000114074
28 *120:8 *285:38 1.01436e-05
29 *120:16 *4107:A 5.50049e-05
30 *140:100 *4107:A 3.04021e-05
31 *140:100 *4117:B 7.02649e-05
32 *213:19 *285:23 0
33 *274:20 *4117:B 2.45709e-05
34 *275:18 *285:38 0.00010018
35 *275:18 *285:44 2.18409e-05
36 *276:54 *4117:B 0
37 *283:75 *4107:A 5.67058e-05
38 *284:49 *4107:A 4.43717e-05
39 *284:65 *285:38 0.000133765
*RES
1 *4387:Q *285:10 41.48 
2 *285:10 *4459:A 38 
3 *285:10 *285:23 23.12 
4 *285:23 *4120:B 23 
5 *285:23 *285:38 34.4743 
6 *285:38 *285:44 17.5479 
7 *285:44 *4107:A 41.2314 
8 *285:44 *4117:B 43.6136 
9 *285:38 *4112:C 23 
*END

*D_NET *286 0.00552298
*CONN
*I *4112:B I *D sky130_fd_sc_hd__or4b_1
*I *4120:A I *D sky130_fd_sc_hd__or4b_1
*I *4502:A I *D sky130_fd_sc_hd__dlygate4sd3_1
*I *4117:C_N I *D sky130_fd_sc_hd__or4bb_1
*I *4274:C I *D sky130_fd_sc_hd__and4_1
*I *4271:B I *D sky130_fd_sc_hd__and3_1
*I *4107:D_N I *D sky130_fd_sc_hd__or4b_1
*I *4388:Q O *D sky130_fd_sc_hd__dfxtp_1
*CAP
1 *4112:B 0.000117117
2 *4120:A 0
3 *4502:A 0
4 *4117:C_N 0.000113207
5 *4274:C 0.00023926
6 *4271:B 0
7 *4107:D_N 0.000220246
8 *4388:Q 0.000322793
9 *286:31 0.000439715
10 *286:25 0.000437465
11 *286:10 0.000344049
12 *286:8 3.55655e-05
13 *286:6 0.000475475
14 *4107:D_N *4265:B 6.70363e-05
15 *4107:D_N *376:6 5.67058e-05
16 *4107:D_N *376:19 0.000141954
17 *4274:C *391:14 0.000166522
18 *286:6 *4269:A1 2.98767e-05
19 *4120:D_N *286:6 5.41288e-05
20 *4268:B *286:6 4.95081e-05
21 *4269:A2 *286:6 5.50106e-05
22 *4269:B1 *286:6 0.000228903
23 *4274:D *4274:C 0.000366108
24 *4275:A2 *4274:C 0
25 *70:10 *4274:C 0
26 *120:8 *4107:D_N 6.57345e-05
27 *120:16 *4107:D_N 0.000143655
28 *140:100 *4107:D_N 0
29 *213:49 *4107:D_N 8.92738e-05
30 *213:49 *4274:C 0.00014504
31 *213:49 *286:25 9.3813e-05
32 *213:49 *286:31 0.000169683
33 *215:8 *4274:C 0
34 *215:8 *286:31 0
35 *217:10 *4274:C 0
36 *275:18 *286:25 0
37 *283:58 *4107:D_N 2.32101e-05
38 *284:65 *4107:D_N 0
39 *284:65 *4112:B 1.21972e-05
40 *284:65 *286:6 1.94693e-05
41 *284:65 *286:8 1.73222e-05
42 *284:65 *286:25 0
43 *285:23 *286:6 0.000523716
44 *285:38 *4107:D_N 6.16531e-05
45 *285:38 *4112:B 0.000181125
46 *285:38 *286:6 1.24376e-05
47 *285:44 *4112:B 4.00259e-06
48 *285:44 *286:8 0
*RES
1 *4388:Q *286:6 32.1971 
2 *286:6 *286:8 0.849286 
3 *286:8 *286:10 15 
4 *286:10 *4107:D_N 43.8414 
5 *286:10 *286:25 17.61 
6 *286:25 *286:31 18.8321 
7 *286:31 *4271:B 38 
8 *286:31 *4274:C 44.8357 
9 *286:25 *4117:C_N 25.0507 
10 *286:25 *4502:A 23 
11 *286:8 *4120:A 23 
12 *286:6 *4112:B 25.5479 
*END

*D_NET *287 0.00218143
*CONN
*I *4536:A I *D sky130_fd_sc_hd__dlygate4sd3_1
*I *4124:A2 I *D sky130_fd_sc_hd__a221o_1
*I *4394:Q O *D sky130_fd_sc_hd__dfxtp_1
*CAP
1 *4536:A 0.000285401
2 *4124:A2 0
3 *4394:Q 0.000255496
4 *287:14 0.000301507
5 *287:10 0.000271603
6 *4536:A *4124:A1 0.000250249
7 *287:10 *290:37 2.76611e-06
8 *287:10 *450:8 0
9 *287:14 *4124:A1 3.32734e-05
10 *4522:A *4536:A 5.67058e-05
11 *97:22 *4536:A 0.000141052
12 *100:338 *4536:A 0.000462695
13 *100:338 *287:14 1.06533e-05
14 *140:18 *287:10 0
15 *140:38 *287:10 0
16 *259:160 *4536:A 9.30151e-05
17 *261:106 *287:10 1.7009e-05
*RES
1 *4394:Q *287:10 41.8321 
2 *287:10 *287:14 15.3832 
3 *287:14 *4124:A2 23 
4 *287:14 *4536:A 31.9589 
*END

*D_NET *288 0.00204888
*CONN
*I *4559:A I *D sky130_fd_sc_hd__dlygate4sd3_1
*I *4395:Q O *D sky130_fd_sc_hd__dfxtp_2
*CAP
1 *4559:A 0.000354746
2 *4395:Q 0.000299172
3 *288:10 0.000653918
4 *4559:A *365:14 0
5 *4559:A *379:40 0
6 *4559:A *488:47 7.91206e-05
7 *288:10 *365:14 7.29586e-05
8 *288:10 *379:40 0.000270682
9 *4450:A *288:10 2.30292e-05
10 *56:10 *4559:A 0.000164282
11 *122:60 *4559:A 3.70094e-05
12 *188:10 *4559:A 2.29192e-05
13 *188:21 *4559:A 3.64189e-05
14 *188:32 *4559:A 3.46241e-05
15 *189:10 *4559:A 0
*RES
1 *4395:Q *288:10 44.8357 
2 *288:10 *4559:A 45.8921 
*END

*D_NET *289 0.000450095
*CONN
*I *4440:A I *D sky130_fd_sc_hd__dlygate4sd3_1
*I *4396:Q O *D sky130_fd_sc_hd__dfxtp_2
*CAP
1 *4440:A 0
2 *4396:Q 0.000106314
3 *289:10 0.000106314
4 *289:10 *373:257 6.93553e-05
5 *289:10 *460:25 0.000138727
6 *289:10 *488:20 2.93845e-05
*RES
1 *4396:Q *289:10 40.5271 
2 *289:10 *4440:A 38 
*END

*D_NET *290 0.0122265
*CONN
*I *4531:A I *D sky130_fd_sc_hd__dlygate4sd3_1
*I *4124:B2 I *D sky130_fd_sc_hd__a221o_1
*I *4192:A I *D sky130_fd_sc_hd__or2_1
*I *4397:Q O *D sky130_fd_sc_hd__dfxtp_4
*CAP
1 *4531:A 0
2 *4124:B2 0
3 *4192:A 0
4 *4397:Q 0.000323283
5 *290:37 0.000278221
6 *290:29 0.000616218
7 *290:16 0.00248411
8 *290:12 0.00249087
9 *290:8 0.000668042
10 *290:8 *460:91 0.000138718
11 *290:16 *4123:A 2.64616e-05
12 *290:16 *4192:B 2.02517e-05
13 *290:16 *488:8 0.000443679
14 *290:16 *488:121 0.000173898
15 *290:16 *488:134 0.000168821
16 *290:29 *373:231 7.81176e-05
17 *290:29 *373:244 4.96264e-05
18 *290:37 *373:222 0
19 *4135:A1 *290:29 9.58714e-05
20 *4144:B *290:37 2.85422e-05
21 *4216:A2 *290:16 0.000216471
22 *4431:A *290:16 9.41704e-05
23 *18:8 *290:29 0.000114083
24 *19:8 *290:8 0
25 *49:10 *290:16 2.54193e-05
26 *100:338 *290:37 1.22822e-05
27 *113:8 *290:29 9.41704e-05
28 *122:12 *290:37 0.000349395
29 *122:32 *290:37 0.000231221
30 *122:45 *290:16 0.000101639
31 *122:54 *290:16 7.55599e-05
32 *122:80 *290:16 1.03836e-05
33 *140:38 *290:37 0
34 *140:209 *290:8 0.000151059
35 *140:209 *290:12 1.27321e-05
36 *140:209 *290:29 7.56596e-05
37 *169:10 *290:16 3.06338e-05
38 *178:10 *290:16 5.50106e-05
39 *178:69 *290:16 0.000874109
40 *259:164 *290:16 0.00027921
41 *263:10 *290:8 3.97399e-05
42 *263:12 *290:8 5.62433e-06
43 *263:12 *290:29 0.000170546
44 *263:14 *290:29 0.000233453
45 *263:18 *290:29 0.00021039
46 *263:18 *290:37 0.00042646
47 *263:63 *290:8 7.45175e-05
48 *263:65 *290:8 0.000124062
49 *263:78 *290:8 5.09885e-05
50 *287:10 *290:37 2.76611e-06
*RES
1 *4397:Q *290:8 46.4204 
2 *290:8 *290:12 15.3211 
3 *290:12 *290:16 49.1136 
4 *290:16 *4192:A 23 
5 *290:8 *290:29 25.1396 
6 *290:29 *290:37 38.5757 
7 *290:37 *4124:B2 23 
8 *290:29 *4531:A 23 
*END

*D_NET *291 0.000510199
*CONN
*I *4449:A I *D sky130_fd_sc_hd__dlygate4sd3_1
*I *4366:Q O *D sky130_fd_sc_hd__dfxtp_1
*CAP
1 *4449:A 0
2 *4366:Q 0.000221665
3 *291:10 0.000221665
4 *291:10 *4210:A 0
5 *39:10 *291:10 6.6869e-05
*RES
1 *4366:Q *291:10 41.48 
2 *291:10 *4449:A 38 
*END

*D_NET *292 0.00224569
*CONN
*I *4560:A I *D sky130_fd_sc_hd__dlygate4sd3_1
*I *4213:A I *D sky130_fd_sc_hd__or2_1
*I *4367:Q O *D sky130_fd_sc_hd__dfxtp_1
*CAP
1 *4560:A 0.000334198
2 *4213:A 0.000518533
3 *4367:Q 0
4 *292:6 0.000852731
5 *4560:A *490:8 0
6 *4212:A2 *4213:A 0
7 *4216:A2 *4213:A 0.000128401
8 *48:10 *4213:A 0
9 *48:10 *4560:A 0
10 *177:80 *4213:A 0
11 *177:80 *4560:A 0
12 *178:69 *4213:A 9.91701e-05
13 *178:86 *4213:A 0
14 *179:8 *4213:A 2.22183e-05
15 *179:8 *4560:A 2.79004e-05
16 *180:95 *4213:A 0.000232141
17 *182:10 *4213:A 3.04021e-05
18 *266:104 *4560:A 0
19 *266:151 *4213:A 0
*RES
1 *4367:Q *292:6 38 
2 *292:6 *4213:A 48.7093 
3 *292:6 *4560:A 44.2971 
*END

*D_NET *293 0.000361649
*CONN
*I *4547:A I *D sky130_fd_sc_hd__dlygate4sd3_1
*I *4368:Q O *D sky130_fd_sc_hd__dfxtp_1
*CAP
1 *4547:A 0
2 *4368:Q 0.000153319
3 *293:10 0.000153319
4 *293:10 *4197:A1 5.50106e-05
5 *293:10 *476:8 0
6 *169:10 *293:10 0
*RES
1 *4368:Q *293:10 40.5271 
2 *293:10 *4547:A 38 
*END

*D_NET *294 0.000229847
*CONN
*I *4538:A I *D sky130_fd_sc_hd__dlygate4sd3_1
*I *4369:Q O *D sky130_fd_sc_hd__dfxtp_1
*CAP
1 *4538:A 0
2 *4369:Q 7.84972e-05
3 *294:8 7.84972e-05
4 *294:8 *4218:A1 7.28526e-05
5 *4539:A *294:8 0
*RES
1 *4369:Q *294:8 39.9057 
2 *294:8 *4538:A 38 
*END

*D_NET *295 0.000593748
*CONN
*I *4534:A I *D sky130_fd_sc_hd__dlygate4sd3_1
*I *4370:Q O *D sky130_fd_sc_hd__dfxtp_1
*CAP
1 *4534:A 2.67488e-05
2 *4370:Q 8.99576e-05
3 *295:8 0.000116706
4 *4534:A *463:16 7.88926e-05
5 *4534:A *468:14 0.000143655
6 *295:8 *4201:A1 0
7 *295:8 *4218:A1 0
8 *295:8 *460:175 0.000137788
*RES
1 *4370:Q *295:8 39.9057 
2 *295:8 *4534:A 39.5743 
*END

*D_NET *296 0.000867944
*CONN
*I *4532:A I *D sky130_fd_sc_hd__dlygate4sd3_1
*I *4371:Q O *D sky130_fd_sc_hd__dfxtp_1
*CAP
1 *4532:A 0
2 *4371:Q 0.000251783
3 *296:8 0.000251783
4 *296:8 *461:25 0
5 *51:8 *296:8 0
6 *259:213 *296:8 0.000338964
7 *266:12 *296:8 2.5415e-05
*RES
1 *4371:Q *296:8 42.7229 
2 *296:8 *4532:A 38 
*END

*D_NET *297 0.00250348
*CONN
*I *4557:A I *D sky130_fd_sc_hd__dlygate4sd3_1
*I *4223:A I *D sky130_fd_sc_hd__or2_1
*I *4372:Q O *D sky130_fd_sc_hd__dfxtp_1
*CAP
1 *4557:A 0
2 *4223:A 0.000102182
3 *4372:Q 0
4 *297:21 0.000563434
5 *297:4 0.000665616
6 *297:21 *4526:A 0.000141869
7 *297:21 *298:10 0.000169674
8 *178:41 *297:21 0.000485446
9 *186:10 *4223:A 1.73399e-05
10 *266:22 *297:21 0.000357921
*RES
1 *4372:Q *297:4 23 
2 *297:4 *4223:A 25.0714 
3 *297:4 *297:21 41.5379 
4 *297:21 *4557:A 23 
*END

*D_NET *298 0.00184881
*CONN
*I *4526:A I *D sky130_fd_sc_hd__dlygate4sd3_1
*I *4225:A I *D sky130_fd_sc_hd__or2_1
*I *4373:Q O *D sky130_fd_sc_hd__dfxtp_1
*CAP
1 *4526:A 0.000206184
2 *4225:A 0
3 *4373:Q 0.000335281
4 *298:10 0.000541465
5 *4526:A *457:10 0.000217743
6 *298:10 *442:8 0
7 *97:45 *298:10 0.000110397
8 *178:14 *4526:A 0
9 *266:22 *4526:A 2.49836e-05
10 *266:66 *4526:A 0.000101211
11 *297:21 *4526:A 0.000141869
12 *297:21 *298:10 0.000169674
*RES
1 *4373:Q *298:10 44.2143 
2 *298:10 *4225:A 38 
3 *298:10 *4526:A 43.4271 
*END

*D_NET *299 0.000345472
*CONN
*I *4521:A I *D sky130_fd_sc_hd__dlygate4sd3_1
*I *4393:Q O *D sky130_fd_sc_hd__dfxtp_1
*CAP
1 *4521:A 2.79004e-05
2 *4393:Q 0.000117331
3 *299:8 0.000145231
4 *4167:A2 *299:8 0
5 *151:8 *4521:A 5.50106e-05
6 *151:12 *299:8 0
*RES
1 *4393:Q *299:8 39.9057 
2 *299:8 *4521:A 38.6214 
*END

*D_NET *300 0.000136993
*CONN
*I *4437:A I *D sky130_fd_sc_hd__dlygate4sd3_1
*I *4398:Q O *D sky130_fd_sc_hd__dfxtp_1
*CAP
1 *4437:A 6.84964e-05
2 *4398:Q 6.84964e-05
*RES
1 *4398:Q *4437:A 47.1186 
*END

*D_NET *301 0.00409743
*CONN
*I *4098:A I *D sky130_fd_sc_hd__inv_2
*I *4446:A I *D sky130_fd_sc_hd__dlygate4sd3_1
*I *4192:B I *D sky130_fd_sc_hd__or2_1
*I *4358:Q O *D sky130_fd_sc_hd__dfxtp_1
*CAP
1 *4098:A 0
2 *4446:A 0
3 *4192:B 0.000291132
4 *4358:Q 0.000190097
5 *301:35 0.000320193
6 *301:27 0.000714878
7 *301:8 0.000875914
8 *4192:B *4194:A 2.93845e-05
9 *301:8 *362:185 0
10 *301:8 *460:192 1.37349e-05
11 *301:8 *479:10 1.89075e-05
12 *301:8 *479:12 1.83564e-05
13 *301:27 *304:10 2.93431e-05
14 *301:27 *362:170 0
15 *301:27 *460:192 0.000126936
16 *301:27 *479:12 8.15327e-05
17 *301:27 *479:20 0.000125904
18 *301:35 *304:10 2.8183e-05
19 *301:35 *305:44 7.87147e-05
20 *9:10 *301:35 5.37348e-06
21 *133:159 *301:27 5.56279e-05
22 *134:83 *301:27 0.00010488
23 *169:10 *4192:B 5.37348e-06
24 *170:8 *301:8 0.000298257
25 *171:10 *4192:B 7.05498e-05
26 *267:59 *301:35 0.000188926
27 *267:101 *301:35 0.000237534
28 *267:130 *301:8 0.000167443
29 *290:16 *4192:B 2.02517e-05
*RES
1 *4358:Q *301:8 43.075 
2 *301:8 *4192:B 43.5514 
3 *301:8 *301:27 24.3836 
4 *301:27 *301:35 37.3536 
5 *301:35 *4446:A 23 
6 *301:27 *4098:A 23 
*END

*D_NET *302 0.000613793
*CONN
*I *4566:A I *D sky130_fd_sc_hd__dlygate4sd3_1
*I *4359:Q O *D sky130_fd_sc_hd__dfxtp_1
*CAP
1 *4566:A 4.24211e-05
2 *4359:Q 0.000264475
3 *302:8 0.000306897
4 *302:8 *303:8 0
5 *302:8 *436:8 0
6 *302:8 *495:10 0
7 *24:10 *302:8 0
*RES
1 *4359:Q *302:8 42.7229 
2 *302:8 *4566:A 38.6214 
*END

*D_NET *303 0.000392044
*CONN
*I *4549:A I *D sky130_fd_sc_hd__dlygate4sd3_1
*I *4360:Q O *D sky130_fd_sc_hd__dfxtp_1
*CAP
1 *4549:A 6.09521e-05
2 *4360:Q 9.99509e-05
3 *303:8 0.000160903
4 *4549:A *495:10 2.93845e-05
5 *303:8 *495:10 4.08537e-05
6 *302:8 *303:8 0
*RES
1 *4360:Q *303:8 39.9057 
2 *303:8 *4549:A 39.0979 
*END

*D_NET *304 0.000974939
*CONN
*I *4561:A I *D sky130_fd_sc_hd__dlygate4sd3_1
*I *4361:Q O *D sky130_fd_sc_hd__dfxtp_1
*CAP
1 *4561:A 4.96677e-05
2 *4361:Q 0.000168986
3 *304:10 0.000218654
4 *4561:A *4158:A1 2.02872e-05
5 *537:DIODE *4561:A 0.000137651
6 *133:159 *4561:A 9.67842e-05
7 *133:159 *304:10 0.00016401
8 *134:83 *304:10 5.73843e-05
9 *267:101 *304:10 3.98882e-06
10 *301:27 *304:10 2.93431e-05
11 *301:35 *304:10 2.8183e-05
*RES
1 *4361:Q *304:10 41.9357 
2 *304:10 *4561:A 39.5743 
*END

*D_NET *305 0.008064
*CONN
*I *4161:A1 I *D sky130_fd_sc_hd__a21o_1
*I *4555:A I *D sky130_fd_sc_hd__dlygate4sd3_1
*I *4200:B I *D sky130_fd_sc_hd__or2_1
*I *4362:Q O *D sky130_fd_sc_hd__dfxtp_1
*CAP
1 *4161:A1 0
2 *4555:A 0
3 *4200:B 0
4 *4362:Q 0.000662026
5 *305:44 0.00104494
6 *305:26 0.000804578
7 *305:16 0.000872731
8 *305:12 0.00111309
9 *305:10 0.000662026
10 *305:10 *4362:D 0.00014361
11 *305:10 *362:164 2.54046e-05
12 *305:10 *362:238 9.84794e-05
13 *305:10 *460:175 0.000187129
14 *305:26 *4201:A1 0
15 *305:26 *460:156 1.01436e-05
16 *305:26 *460:175 0.000218952
17 *305:26 *463:6 7.43025e-06
18 *305:26 *468:14 0.000313255
19 *305:26 *484:10 0.000269781
20 *305:44 *4530:A 3.47781e-05
21 *305:44 *4616:A 0.000489954
22 *305:44 *495:12 0
23 *305:44 *500:10 0.000192077
24 *4347:CLK *305:44 1.34995e-05
25 *4535:A *305:26 0.00014196
26 *9:10 *305:44 5.73835e-06
27 *36:10 *305:26 0
28 *100:255 *305:44 3.83059e-05
29 *133:147 *305:44 0.000425511
30 *159:10 *305:44 2.54046e-05
31 *259:64 *305:10 8.4047e-05
32 *267:8 *305:10 1.56762e-05
33 *267:12 *305:10 8.47575e-05
34 *301:35 *305:44 7.87147e-05
*RES
1 *4362:Q *305:10 47.9221 
2 *305:10 *305:12 15 
3 *305:12 *305:16 1.47071 
4 *305:16 *305:26 46.3436 
5 *305:26 *4200:B 23 
6 *305:16 *4555:A 23 
7 *305:12 *305:44 47.3586 
8 *305:44 *4161:A1 23 
*END

*D_NET *306 0.00593539
*CONN
*I *4202:B I *D sky130_fd_sc_hd__or2_1
*I *4163:A1 I *D sky130_fd_sc_hd__a21o_1
*I *4579:A I *D sky130_fd_sc_hd__dlygate4sd3_1
*I *4363:Q O *D sky130_fd_sc_hd__dfxtp_1
*CAP
1 *4202:B 0
2 *4163:A1 0.000898933
3 *4579:A 0
4 *4363:Q 8.43131e-05
5 *306:30 0.00010873
6 *306:24 0.00159026
7 *306:12 0.00060934
8 *306:8 0.000111056
9 *4163:A1 *4180:B 9.84794e-05
10 *4163:A1 *4354:D 0.000441814
11 *4163:A1 *4356:D 4.17736e-05
12 *4163:A1 *330:10 3.18969e-05
13 *4163:A1 *331:25 0.000315767
14 *4163:A1 *332:8 0.000228001
15 *4163:A1 *332:21 0.000185428
16 *306:24 *4356:D 0.000191382
17 *306:24 *460:143 3.89637e-05
18 *306:30 *362:130 7.66188e-05
19 *306:30 *508:10 0
20 *4182:S *4163:A1 0.000141954
21 *4203:C1 *306:30 4.58924e-05
22 *4205:A2 *306:24 0
23 *4354:CLK *4163:A1 4.86324e-05
24 *45:8 *306:24 0.000164514
25 *142:100 *4163:A1 5.50049e-05
26 *174:8 *306:24 9.68788e-05
27 *259:8 *306:12 2.93845e-05
28 *259:8 *306:24 1.40958e-05
29 *259:14 *306:8 3.0647e-05
30 *259:152 *306:8 6.22475e-05
31 *266:22 *306:8 0.000193388
*RES
1 *4363:Q *306:8 40.61 
2 *306:8 *306:12 15.6214 
3 *306:12 *306:24 12.4079 
4 *306:24 *306:30 32.9621 
5 *306:30 *4579:A 23 
6 *306:24 *4163:A1 43.3207 
7 *306:12 *4202:B 23 
*END

*D_NET *307 0.00813678
*CONN
*I *4204:B I *D sky130_fd_sc_hd__or2_1
*I *4189:A1 I *D sky130_fd_sc_hd__o211a_1
*I *4165:A1 I *D sky130_fd_sc_hd__a21o_1
*I *4364:Q O *D sky130_fd_sc_hd__dfxtp_1
*CAP
1 *4204:B 0
2 *4189:A1 0
3 *4165:A1 0.000674152
4 *4364:Q 0
5 *307:34 0.000530879
6 *307:23 0.000758637
7 *307:15 0.00154502
8 *307:4 0.000929658
9 *307:23 *4189:C1 5.3304e-05
10 *307:23 *373:145 0
11 *307:23 *487:8 0
12 *307:34 *553:DIODE 0.000170394
13 *307:34 *554:DIODE 5.50049e-05
14 *307:34 *460:126 4.95081e-05
15 *307:34 *460:133 0.000612366
16 *307:34 *460:143 0.000216721
17 *4365:CLK *4165:A1 0.000701923
18 *4365:CLK *307:15 0.000172197
19 *4520:A *307:23 8.1796e-05
20 *76:8 *307:23 0
21 *100:79 *307:23 0
22 *100:90 *307:23 2.79543e-05
23 *100:374 *307:34 0.000143655
24 *133:23 *4165:A1 3.22879e-05
25 *133:38 *4165:A1 0.000100445
26 *142:69 *307:23 0
27 *166:8 *307:23 4.13945e-05
28 *259:14 *307:23 0.000743092
29 *259:14 *307:34 0.000154138
30 *259:152 *307:34 0.000161121
31 *266:22 *307:34 0
32 *266:33 *307:15 0.000181125
*RES
1 *4364:Q *307:4 23 
2 *307:4 *4165:A1 33.6264 
3 *307:4 *307:15 18.9564 
4 *307:15 *307:23 31.3643 
5 *307:23 *4189:A1 23 
6 *307:15 *307:34 28.195 
7 *307:34 *4204:B 23 
*END

*D_NET *308 0.00347187
*CONN
*I *4518:A I *D sky130_fd_sc_hd__dlygate4sd3_1
*I *4167:A1 I *D sky130_fd_sc_hd__a21o_1
*I *4365:Q O *D sky130_fd_sc_hd__dfxtp_1
*CAP
1 *4518:A 0
2 *4167:A1 0
3 *4365:Q 0.000213702
4 *308:16 0.000934867
5 *308:10 0.00114857
6 *308:16 *4331:A1 8.99287e-05
7 *308:16 *4333:B 4.95081e-05
8 *4331:B1 *308:16 5.67058e-05
9 *4365:CLK *308:10 7.24365e-05
10 *4399:CLK *308:16 0.000236637
11 *92:10 *308:16 2.88036e-05
12 *133:38 *308:10 0.000185428
13 *252:33 *308:16 0.000353214
14 *252:37 *308:16 3.58084e-06
15 *252:45 *308:16 9.84851e-05
16 *259:14 *308:10 0
17 *259:14 *308:16 0
*RES
1 *4365:Q *308:10 42.6607 
2 *308:10 *308:16 29.9143 
3 *308:16 *4167:A1 23 
4 *308:10 *4518:A 38 
*END

*D_NET *309 0.0031344
*CONN
*I *4137:D_N I *D sky130_fd_sc_hd__or4b_1
*I *4497:A I *D sky130_fd_sc_hd__dlygate4sd3_1
*I *4400:Q O *D sky130_fd_sc_hd__dfxtp_1
*CAP
1 *4137:D_N 0.000595364
2 *4497:A 0
3 *4400:Q 0.00062739
4 *309:12 8.63323e-05
5 *309:6 0.00130909
6 *4137:D_N *310:22 4.96717e-05
7 *309:6 *4400:D 0.000100782
8 *4293:A_N *4137:D_N 3.18142e-05
9 *4293:B *4137:D_N 1.43274e-05
10 *4400:CLK *4137:D_N 0.000195119
11 *4400:CLK *309:6 5.41385e-05
12 *228:8 *309:12 7.03766e-05
13 *265:12 *309:12 0
*RES
1 *4400:Q *309:6 31.2443 
2 *309:6 *309:12 31.9057 
3 *309:12 *4497:A 23 
4 *309:6 *4137:D_N 31.7414 
*END

*D_NET *310 0.00267265
*CONN
*I *4514:A I *D sky130_fd_sc_hd__dlygate4sd3_1
*I *4137:C I *D sky130_fd_sc_hd__or4b_1
*I *4125:B I *D sky130_fd_sc_hd__or4b_1
*I *4401:Q O *D sky130_fd_sc_hd__dfxtp_1
*CAP
1 *4514:A 0
2 *4137:C 0
3 *4125:B 0
4 *4401:Q 0
5 *310:40 0.000272559
6 *310:22 0.000281734
7 *310:14 0.000444038
8 *310:4 0.000434863
9 *310:14 *4137:A 5.79559e-05
10 *310:14 *4137:B 0.000188927
11 *310:14 *372:6 4.21048e-05
12 *310:40 *422:31 0
13 *310:40 *431:28 3.70094e-05
14 *4137:D_N *310:22 4.96717e-05
15 *4293:A_N *310:22 0.000139974
16 *4297:B *310:14 0.000132142
17 *4297:B *310:40 3.70094e-05
18 *4402:CLK *310:40 5.41288e-05
19 *124:8 *310:22 0
20 *225:10 *310:22 0.000266179
21 *225:33 *310:40 2.76611e-06
22 *228:33 *310:40 4.6318e-06
23 *229:10 *310:22 0
24 *230:14 *310:14 0
25 *230:35 *310:14 4.18667e-05
26 *230:35 *310:22 0.000100069
27 *231:10 *310:40 0
28 *232:14 *310:40 8.50169e-05
29 *265:12 *310:22 0
*RES
1 *4401:Q *310:4 23 
2 *310:4 *310:14 34.4536 
3 *310:14 *310:22 36.1936 
4 *310:22 *4125:B 23 
5 *310:14 *4137:C 23 
6 *310:4 *310:40 35.1164 
7 *310:40 *4514:A 23 
*END

*D_NET *311 0.00280333
*CONN
*I *4137:B I *D sky130_fd_sc_hd__or4b_1
*I *4506:A I *D sky130_fd_sc_hd__dlygate4sd3_1
*I *4402:Q O *D sky130_fd_sc_hd__dfxtp_1
*CAP
1 *4137:B 0.000451794
2 *4506:A 0
3 *4402:Q 0.000275291
4 *311:12 0.000451794
5 *311:10 0.000275291
6 *4137:B *4294:A 0.00026849
7 *4137:B *372:6 9.30054e-05
8 *4137:B *422:6 4.2573e-05
9 *4137:B *422:18 0.000228903
10 *311:10 *430:8 0
11 *527:DIODE *4137:B 1.76557e-05
12 *4513:A *311:10 6.6869e-05
13 *230:35 *4137:B 2.25419e-05
14 *231:10 *4137:B 0.000420201
15 *310:14 *4137:B 0.000188927
*RES
1 *4402:Q *311:10 41.9564 
2 *311:10 *311:12 15 
3 *311:12 *4506:A 23 
4 *311:12 *4137:B 35.7911 
*END

*D_NET *312 0.000240352
*CONN
*I *4456:A I *D sky130_fd_sc_hd__dlygate4sd3_1
*I *4403:Q O *D sky130_fd_sc_hd__dfxtp_1
*CAP
1 *4456:A 0
2 *4403:Q 9.77474e-05
3 *312:8 9.77474e-05
4 *312:8 *422:18 0
5 *574:DIODE *312:8 4.48568e-05
*RES
1 *4403:Q *312:8 39.9057 
2 *312:8 *4456:A 38 
*END

*D_NET *313 0.000994289
*CONN
*I *4511:A I *D sky130_fd_sc_hd__dlygate4sd3_1
*I *4404:Q O *D sky130_fd_sc_hd__dfxtp_1
*CAP
1 *4511:A 6.10583e-05
2 *4404:Q 0.000176318
3 *313:10 0.000237377
4 *4511:A *427:12 0.000272383
5 *130:55 *313:10 6.71408e-06
6 *226:6 *4511:A 0.000185428
7 *226:12 *313:10 0
8 *226:21 *4511:A 5.50106e-05
9 *234:8 *313:10 0
*RES
1 *4404:Q *313:10 40.5271 
2 *313:10 *4511:A 41.0036 
*END

*D_NET *314 0.000456329
*CONN
*I *4544:A I *D sky130_fd_sc_hd__dlygate4sd3_1
*I *4414:Q O *D sky130_fd_sc_hd__dfxtp_1
*CAP
1 *4544:A 0
2 *4414:Q 0.000214546
3 *314:10 0.000214546
4 *144:138 *314:10 2.7237e-05
5 *255:10 *314:10 0
*RES
1 *4414:Q *314:10 41.3557 
2 *314:10 *4544:A 38 
*END

*D_NET *315 0.000849017
*CONN
*I *4542:A I *D sky130_fd_sc_hd__dlygate4sd3_1
*I *4415:Q O *D sky130_fd_sc_hd__dfxtp_1
*CAP
1 *4542:A 0
2 *4415:Q 0.000424509
3 *315:10 0.000424509
4 *315:10 *471:51 0
5 *144:205 *315:10 0
*RES
1 *4415:Q *315:10 43.8621 
2 *315:10 *4542:A 38 
*END

*D_NET *316 0.00247354
*CONN
*I *4487:A I *D sky130_fd_sc_hd__dlygate4sd3_1
*I *4335:A1 I *D sky130_fd_sc_hd__a31o_1
*I *4416:Q O *D sky130_fd_sc_hd__dfxtp_1
*CAP
1 *4487:A 0
2 *4335:A1 0
3 *4416:Q 0.000134433
4 *316:25 0.000724032
5 *316:12 0.000112456
6 *316:6 0.000970921
7 *316:6 *4332:A1 7.24365e-05
8 *316:12 *404:10 0
9 *316:12 *471:12 2.61699e-05
10 *316:25 *4332:A1 4.57742e-05
11 *316:25 *4332:B1 3.75094e-05
12 *316:25 *4416:D 5.34647e-06
13 *316:25 *350:14 0
14 *316:25 *352:10 0.000196549
15 *4416:CLK *316:25 4.06849e-05
16 *93:10 *316:12 8.4047e-05
17 *257:10 *316:25 0
18 *264:88 *316:25 2.31797e-05
*RES
1 *4416:Q *316:6 25.0507 
2 *316:6 *316:12 32.2579 
3 *316:12 *4335:A1 23 
4 *316:6 *316:25 40.9579 
5 *316:25 *4487:A 23 
*END

*D_NET *317 0.000820003
*CONN
*I *4603:A I *D sky130_fd_sc_hd__dlygate4sd3_1
*I *4417:Q O *D sky130_fd_sc_hd__dfxtp_1
*CAP
1 *4603:A 6.86276e-05
2 *4417:Q 7.76805e-05
3 *317:8 0.000146308
4 *317:8 *373:74 0.00024897
5 *100:106 *4603:A 3.16784e-05
6 *144:10 *317:8 0.000246739
*RES
1 *4417:Q *317:8 41.3143 
2 *317:8 *4603:A 39.0979 
*END

*D_NET *318 0.000213578
*CONN
*I *4515:A I *D sky130_fd_sc_hd__dlygate4sd3_1
*I *4405:Q O *D sky130_fd_sc_hd__dfxtp_1
*CAP
1 *4515:A 0
2 *4405:Q 8.25999e-05
3 *318:8 8.25999e-05
4 *234:64 *318:8 4.83778e-05
*RES
1 *4405:Q *318:8 39.9057 
2 *318:8 *4515:A 38 
*END

*D_NET *319 0.000826525
*CONN
*I *4472:A I *D sky130_fd_sc_hd__dlygate4sd3_1
*I *4406:Q O *D sky130_fd_sc_hd__dfxtp_1
*CAP
1 *4472:A 0
2 *4406:Q 0.000140444
3 *319:8 0.000140444
4 *319:8 *446:10 0.000176893
5 *4309:C1 *319:8 1.01436e-05
6 *144:24 *319:8 3.70187e-05
7 *144:26 *319:8 0.000321581
*RES
1 *4406:Q *319:8 42.7229 
2 *319:8 *4472:A 38 
*END

*D_NET *320 0.000425557
*CONN
*I *4605:A I *D sky130_fd_sc_hd__dlygate4sd3_1
*I *4407:Q O *D sky130_fd_sc_hd__dfxtp_1
*CAP
1 *4605:A 0
2 *4407:Q 7.45302e-05
3 *320:8 7.45302e-05
4 *320:8 *353:29 0.000165583
5 *320:8 *354:10 0.000110913
6 *264:41 *320:8 0
*RES
1 *4407:Q *320:8 40.2579 
2 *320:8 *4605:A 38 
*END

*D_NET *321 0.000249722
*CONN
*I *4490:A I *D sky130_fd_sc_hd__dlygate4sd3_1
*I *4408:Q O *D sky130_fd_sc_hd__dfxtp_1
*CAP
1 *4490:A 0.000124861
2 *4408:Q 0.000124861
*RES
1 *4408:Q *4490:A 48.4236 
*END

*D_NET *322 0.000648447
*CONN
*I *4587:A I *D sky130_fd_sc_hd__dlygate4sd3_1
*I *4409:Q O *D sky130_fd_sc_hd__dfxtp_1
*CAP
1 *4587:A 0
2 *4409:Q 0.000324223
3 *322:10 0.000324223
4 *322:10 *518:8 0
5 *242:48 *322:10 0
6 *245:31 *322:10 0
*RES
1 *4409:Q *322:10 43.3443 
2 *322:10 *4587:A 38 
*END

*D_NET *323 0.000325094
*CONN
*I *4590:A I *D sky130_fd_sc_hd__dlygate4sd3_1
*I *4410:Q O *D sky130_fd_sc_hd__dfxtp_1
*CAP
1 *4590:A 0
2 *4410:Q 5.73903e-05
3 *323:8 5.73903e-05
4 *246:10 *323:8 0.000140958
5 *264:49 *323:8 6.93553e-05
*RES
1 *4410:Q *323:8 39.9057 
2 *323:8 *4590:A 38 
*END

*D_NET *324 0.00153172
*CONN
*I *4523:A I *D sky130_fd_sc_hd__dlygate4sd3_1
*I *4411:Q O *D sky130_fd_sc_hd__dfxtp_1
*CAP
1 *4523:A 0
2 *4411:Q 0.000612851
3 *324:8 0.000612851
4 *324:8 *4411:D 0.000276636
5 *4411:CLK *324:8 2.93845e-05
*RES
1 *4411:Q *324:8 32.0936 
2 *324:8 *4523:A 23 
*END

*D_NET *325 0.00124894
*CONN
*I *4528:A I *D sky130_fd_sc_hd__dlygate4sd3_1
*I *4412:Q O *D sky130_fd_sc_hd__dfxtp_1
*CAP
1 *4528:A 0.000223131
2 *4412:Q 0.000112986
3 *325:8 0.000336116
4 *152:16 *4528:A 0.000576704
*RES
1 *4412:Q *325:8 39.9057 
2 *325:8 *4528:A 44.3386 
*END

*D_NET *326 0.00171456
*CONN
*I *4327:B I *D sky130_fd_sc_hd__and4_2
*I *4500:A I *D sky130_fd_sc_hd__dlygate4sd3_1
*I *4413:Q O *D sky130_fd_sc_hd__dfxtp_1
*CAP
1 *4327:B 6.83154e-05
2 *4500:A 0.000123655
3 *4413:Q 0.000239228
4 *326:8 0.000431199
5 *4327:B *4327:C 4.99867e-05
6 *4327:B *458:14 0.000118116
7 *4327:B *473:12 6.07611e-06
8 *4500:A *418:8 0.000114083
9 *4500:A *458:14 7.94241e-05
10 *4500:A *458:20 2.84809e-05
11 *326:8 *416:23 0.000118058
12 *4327:D *4327:B 8.0034e-05
13 *4327:D *4500:A 0.00021866
14 *247:60 *4500:A 3.92407e-05
15 *252:70 *4327:B 0
*RES
1 *4413:Q *326:8 41.48 
2 *326:8 *4500:A 42.4329 
3 *326:8 *4327:B 40.2579 
*END

*D_NET *327 0.00190106
*CONN
*I *4170:A1 I *D sky130_fd_sc_hd__mux2_1
*I *4480:A I *D sky130_fd_sc_hd__dlygate4sd3_1
*I *4351:Q O *D sky130_fd_sc_hd__dfxtp_1
*CAP
1 *4170:A1 0
2 *4480:A 0
3 *4351:Q 0.000179278
4 *327:18 0.000310619
5 *327:8 0.000489896
6 *327:8 *4170:A0 2.93335e-05
7 *327:18 *4170:A0 1.6891e-05
8 *327:18 *4337:A1 0.000139692
9 *327:18 *351:22 0.000178884
10 *327:18 *362:47 2.52956e-05
11 *95:6 *327:18 0.000362472
12 *95:14 *327:18 1.54642e-05
13 *143:24 *327:8 9.65323e-05
14 *154:10 *327:8 5.67058e-05
15 *259:53 *327:18 0
16 *259:64 *327:18 0
*RES
1 *4351:Q *327:8 26.9771 
2 *327:8 *327:18 38.0164 
3 *327:18 *4480:A 23 
4 *327:8 *4170:A1 23 
*END

*D_NET *328 0.00212194
*CONN
*I *4599:A I *D sky130_fd_sc_hd__dlygate4sd3_1
*I *4352:Q O *D sky130_fd_sc_hd__dfxtp_1
*CAP
1 *4599:A 0.000162718
2 *4352:Q 0.000426064
3 *328:10 0.000588782
4 *4599:A *346:10 5.3304e-05
5 *328:10 *329:10 0
6 *328:10 *348:10 0.000213615
7 *328:10 *373:48 5.28836e-05
8 *328:10 *495:12 0.000482051
9 *7:16 *4599:A 0.000142523
10 *153:55 *328:10 0
*RES
1 *4352:Q *328:10 47.0107 
2 *328:10 *4599:A 41.48 
*END

*D_NET *329 0.00139409
*CONN
*I *4575:A I *D sky130_fd_sc_hd__dlygate4sd3_1
*I *4353:Q O *D sky130_fd_sc_hd__dfxtp_1
*CAP
1 *4575:A 3.97707e-05
2 *4353:Q 0.000305844
3 *329:10 0.000345614
4 *4575:A *347:6 7.87243e-05
5 *329:10 *346:10 0.000215791
6 *329:10 *478:26 0.000130929
7 *329:10 *495:12 0
8 *329:10 *505:8 0
9 *153:55 *329:10 0.000136486
10 *157:8 *4575:A 0.000140935
11 *328:10 *329:10 0
*RES
1 *4353:Q *329:10 43.8207 
2 *329:10 *4575:A 39.5743 
*END

*D_NET *330 0.00144943
*CONN
*I *4570:A I *D sky130_fd_sc_hd__dlygate4sd3_1
*I *4354:Q O *D sky130_fd_sc_hd__dfxtp_1
*CAP
1 *4570:A 0
2 *4354:Q 0.000547747
3 *330:10 0.000547747
4 *330:10 *505:8 0
5 *4163:A1 *330:10 3.18969e-05
6 *100:234 *330:10 3.18142e-05
7 *150:10 *330:10 0.000228558
8 *267:65 *330:10 6.16653e-05
*RES
1 *4354:Q *330:10 45.7679 
2 *330:10 *4570:A 38 
*END

*D_NET *331 0.00247313
*CONN
*I *4179:A0 I *D sky130_fd_sc_hd__mux2_1
*I *4182:A1 I *D sky130_fd_sc_hd__mux2_1
*I *4355:Q O *D sky130_fd_sc_hd__dfxtp_1
*CAP
1 *4179:A0 0
2 *4182:A1 0
3 *4355:Q 0.000166822
4 *331:25 0.000561693
5 *331:12 0.000627818
6 *331:8 0.000232947
7 *331:12 *332:8 5.50106e-05
8 *331:12 *332:21 4.34745e-05
9 *331:25 *4180:B 9.58714e-05
10 *331:25 *332:21 0.000141954
11 *331:25 *362:137 8.62783e-05
12 *331:25 *373:343 8.62783e-05
13 *4163:A1 *331:25 0.000315767
14 *4182:S *331:8 0
15 *4184:A2 *331:8 0
16 *142:100 *331:25 5.50049e-05
17 *161:8 *331:8 0
18 *162:8 *331:8 4.21594e-06
*RES
1 *4355:Q *331:8 40.9621 
2 *331:8 *331:12 16.0979 
3 *331:12 *4182:A1 23 
4 *331:12 *331:25 38.9693 
5 *331:25 *4179:A0 23 
*END

*D_NET *332 0.0011895
*CONN
*I *4185:A1 I *D sky130_fd_sc_hd__mux2_1
*I *4182:A0 I *D sky130_fd_sc_hd__mux2_1
*I *4356:Q O *D sky130_fd_sc_hd__dfxtp_1
*CAP
1 *4185:A1 0
2 *4182:A0 0
3 *4356:Q 0.000122118
4 *332:21 0.000119645
5 *332:8 0.000241763
6 *4163:A1 *332:8 0.000228001
7 *4163:A1 *332:21 0.000185428
8 *4182:S *332:21 5.21024e-05
9 *162:8 *332:21 0
10 *331:12 *332:8 5.50106e-05
11 *331:12 *332:21 4.34745e-05
12 *331:25 *332:21 0.000141954
*RES
1 *4356:Q *332:8 26.0243 
2 *332:8 *4182:A0 23 
3 *332:8 *332:21 33.6043 
4 *332:21 *4185:A1 23 
*END

*D_NET *333 0.00290175
*CONN
*I *4185:A0 I *D sky130_fd_sc_hd__mux2_1
*I *4188:B2 I *D sky130_fd_sc_hd__a22o_1
*I *4357:Q O *D sky130_fd_sc_hd__dfxtp_1
*CAP
1 *4185:A0 0.000306852
2 *4188:B2 0.000167877
3 *4357:Q 0.000359671
4 *333:8 0.0008344
5 *4188:B2 *456:12 0.000218952
6 *4148:B *4188:B2 4.21594e-06
7 *4182:S *4185:A0 1.22803e-05
8 *4188:B1 *4188:B2 5.50049e-05
9 *130:44 *4188:B2 0.000107641
10 *133:42 *333:8 9.75779e-05
11 *133:51 *333:8 0.000315852
12 *133:55 *4188:B2 1.69564e-05
13 *133:93 *333:8 0.000140259
14 *142:36 *4185:A0 5.50049e-05
15 *153:21 *4185:A0 0.00017092
16 *153:21 *4188:B2 3.82852e-05
17 *162:8 *4185:A0 0
*RES
1 *4357:Q *333:8 43.8621 
2 *333:8 *4188:B2 42.64 
3 *333:8 *4185:A0 43.6964 
*END

*D_NET *334 0.000182174
*CONN
*I *4190:A I *D sky130_fd_sc_hd__and3_1
*I *4399:Q O *D sky130_fd_sc_hd__dfxtp_1
*CAP
1 *4190:A 7.78561e-05
2 *4399:Q 7.78561e-05
3 *264:119 *4190:A 2.64616e-05
*RES
1 *4399:Q *4190:A 47.1186 
*END

*D_NET *335 0.00993217
*CONN
*I *4338:B I *D sky130_fd_sc_hd__or3_1
*I *4512:A I *D sky130_fd_sc_hd__dlygate4sd3_1
*I *4139:A1 I *D sky130_fd_sc_hd__a221o_1
*I *4148:A I *D sky130_fd_sc_hd__and2_2
*I *4149:A I *D sky130_fd_sc_hd__nand2_2
*I *4188:A1 I *D sky130_fd_sc_hd__a22o_1
*I *4339:Q O *D sky130_fd_sc_hd__dfxtp_1
*CAP
1 *4338:B 0.000328156
2 *4512:A 0
3 *4139:A1 0
4 *4148:A 2.205e-05
5 *4149:A 0.000201862
6 *4188:A1 9.05795e-05
7 *4339:Q 0
8 *335:65 0.000202431
9 *335:55 0.000510389
10 *335:49 0.000636113
11 *335:18 0.000538235
12 *335:12 0.000267844
13 *335:10 0.00141039
14 *335:4 0.00141039
15 *4149:A *4169:A 0.000194345
16 *4338:B *4338:C 0.00017761
17 *4338:B *495:33 3.60842e-05
18 *335:10 *4101:A 1.59094e-05
19 *335:10 *336:10 0
20 *335:10 *513:8 5.36457e-05
21 *335:18 *360:10 4.66047e-05
22 *335:55 *4155:A 4.0773e-05
23 *335:55 *338:10 0.000191148
24 *335:55 *399:14 9.45388e-05
25 *335:55 *495:33 3.4045e-05
26 *335:65 *338:10 0.000194327
27 *527:DIODE *335:65 1.14452e-05
28 *4148:B *4148:A 5.50106e-05
29 *4148:B *4149:A 1.83667e-05
30 *4148:B *335:18 0.000382721
31 *4149:B *4149:A 1.14154e-05
32 *4338:A *4338:B 2.02872e-05
33 *95:6 *4338:B 4.75206e-05
34 *95:14 *335:10 0.00015544
35 *100:106 *335:10 6.41361e-05
36 *100:115 *335:10 2.81406e-06
37 *100:189 *4338:B 7.59794e-05
38 *100:193 *4338:B 1.97329e-05
39 *101:10 *335:10 8.07994e-05
40 *130:29 *4149:A 2.70366e-05
41 *130:29 *335:18 8.16356e-05
42 *130:44 *4188:A1 7.44354e-05
43 *133:51 *4149:A 2.32004e-05
44 *133:55 *4149:A 9.80568e-05
45 *134:119 *335:55 0
46 *134:125 *335:55 0.000155068
47 *134:125 *335:65 6.16531e-05
48 *134:127 *335:65 0.000378102
49 *136:10 *335:65 0.00025214
50 *143:14 *4149:A 9.91798e-05
51 *143:74 *4149:A 1.14154e-05
52 *146:20 *335:18 0
53 *233:16 *335:65 9.5877e-05
54 *265:10 *335:10 0.000663434
55 *265:89 *335:10 0.00026779
*RES
1 *4339:Q *335:4 23 
2 *335:4 *335:10 35.9836 
3 *335:10 *335:12 15 
4 *335:12 *335:18 21.6907 
5 *335:18 *4188:A1 39.5743 
6 *335:18 *4149:A 43.8621 
7 *335:12 *4148:A 23.6214 
8 *335:4 *335:49 15 
9 *335:49 *335:55 7.60214 
10 *335:55 *335:65 37.0221 
11 *335:65 *4139:A1 38 
12 *335:55 *4512:A 38 
13 *335:49 *4338:B 44.7114 
*END

*D_NET *336 0.000662445
*CONN
*I *4444:A I *D sky130_fd_sc_hd__dlygate4sd3_1
*I *4340:Q O *D sky130_fd_sc_hd__dfxtp_2
*CAP
1 *4444:A 0
2 *4340:Q 0.00030287
3 *336:10 0.00030287
4 *336:10 *4101:A 0
5 *336:10 *337:8 0
6 *336:10 *360:20 0
7 *336:10 *513:8 0
8 *259:42 *336:10 5.67058e-05
9 *335:10 *336:10 0
*RES
1 *4340:Q *336:10 43.3443 
2 *336:10 *4444:A 38 
*END

*D_NET *337 0.000820436
*CONN
*I *4478:A I *D sky130_fd_sc_hd__dlygate4sd3_1
*I *4341:Q O *D sky130_fd_sc_hd__dfxtp_1
*CAP
1 *4478:A 3.79513e-05
2 *4341:Q 0.000234578
3 *337:8 0.000272529
4 *4478:A *394:30 9.84851e-05
5 *337:8 *360:20 0.000176893
6 *336:10 *337:8 0
*RES
1 *4341:Q *337:8 42.7229 
2 *337:8 *4478:A 39.0979 
*END

*D_NET *338 0.00167088
*CONN
*I *4451:A I *D sky130_fd_sc_hd__dlygate4sd3_1
*I *4342:Q O *D sky130_fd_sc_hd__dfxtp_1
*CAP
1 *4451:A 0
2 *4342:Q 0.000439182
3 *338:10 0.000439182
4 *338:10 *339:16 0
5 *338:10 *495:33 6.9805e-05
6 *338:10 *514:20 4.09254e-05
7 *574:DIODE *338:10 0
8 *4586:A *338:10 9.58714e-05
9 *12:9 *338:10 0
10 *134:119 *338:10 9.48381e-06
11 *134:125 *338:10 9.41704e-05
12 *136:10 *338:10 9.67842e-05
13 *335:55 *338:10 0.000191148
14 *335:65 *338:10 0.000194327
*RES
1 *4342:Q *338:10 47.0314 
2 *338:10 *4451:A 38 
*END

*D_NET *339 0.00483392
*CONN
*I *4436:A I *D sky130_fd_sc_hd__buf_4
*I *4607:X O *D sky130_fd_sc_hd__clkbuf_1
*CAP
1 *4436:A 0
2 *4607:X 0
3 *339:16 0.00135475
4 *339:6 0.00135475
5 *339:16 *362:271 1.05441e-05
6 *339:16 *373:12 0
7 *339:16 *373:18 0
8 *339:16 *478:39 5.79413e-06
9 *339:16 *491:24 0
10 *339:16 *498:8 2.80532e-05
11 *339:16 *515:10 0.000519902
12 led[3] *339:16 0
13 *12:9 *339:16 0.000196526
14 *27:8 *339:16 6.93553e-05
15 *100:206 *339:16 3.51105e-05
16 *134:115 *339:16 0.000833589
17 *134:119 *339:16 0.000425539
18 *338:10 *339:16 0
*RES
1 *4607:X *339:6 38 
2 *339:6 *339:16 39.3897 
3 *339:16 *4436:A 38 
*END

*D_NET *340 0.00808168
*CONN
*I *4493:A I *D sky130_fd_sc_hd__dlygate4sd3_1
*I *4609:A I *D sky130_fd_sc_hd__buf_2
*I *4350:Q O *D sky130_fd_sc_hd__dfxtp_1
*CAP
1 *4493:A 0
2 *4609:A 0
3 *4350:Q 0
4 *340:25 0.000313571
5 *340:10 0.00356983
6 *340:8 0.00365995
7 *340:4 0.000403689
8 *340:25 *443:10 4.334e-05
9 *4168:B1 *340:25 6.17437e-06
10 *31:8 *340:25 8.51329e-05
*RES
1 *4350:Q *340:4 23 
2 *340:4 *340:8 16.0979 
3 *340:8 *340:10 69.8693 
4 *340:10 *4609:A 38 
5 *340:4 *340:25 35.5929 
6 *340:25 *4493:A 23 
*END

*D_NET *341 0.00143701
*CONN
*I *4245:C1 I *D sky130_fd_sc_hd__o311a_2
*I *4246:A1 I *D sky130_fd_sc_hd__o21ai_1
*I *4593:X O *D sky130_fd_sc_hd__dlygate4sd3_1
*CAP
1 *4245:C1 0
2 *4246:A1 0.000117877
3 *4593:X 0
4 *341:19 0.000217402
5 *341:4 0.000335278
6 *341:19 *4242:A3 0
7 *341:19 *356:27 0
8 *341:19 *460:54 0.000246748
9 *4593:A *4246:A1 1.5769e-05
10 *201:10 *4246:A1 6.17437e-06
11 *259:173 *4246:A1 0.000361027
12 *259:173 *341:19 0.000136738
*RES
1 *4593:X *341:4 23 
2 *341:4 *4246:A1 26.9564 
3 *341:4 *341:19 34.8886 
4 *341:19 *4245:C1 23 
*END

*D_NET *342 0.000120432
*CONN
*I *4247:B I *D sky130_fd_sc_hd__nor2_1
*I *4594:X O *D sky130_fd_sc_hd__dlygate4sd3_1
*CAP
1 *4247:B 1.80182e-05
2 *4594:X 1.80182e-05
3 *4247:A *4247:B 5.50106e-05
4 *61:12 *4247:B 2.93845e-05
*RES
1 *4594:X *4247:B 46.6214 
*END

*D_NET *343 0.000504746
*CONN
*I *4380:D I *D sky130_fd_sc_hd__dfxtp_1
*I *4595:X O *D sky130_fd_sc_hd__dlygate4sd3_1
*CAP
1 *4380:D 8.45249e-06
2 *4595:X 0.000131996
3 *343:10 0.000140448
4 *343:10 *4122:A1 0.000140958
5 *343:10 *356:27 0
6 *343:10 *460:54 1.14452e-05
7 *343:10 *488:78 5.50106e-05
8 *140:66 *4380:D 1.64354e-05
*RES
1 *4595:X *343:10 40.5271 
2 *343:10 *4380:D 38.1916 
*END

*D_NET *344 0.00474729
*CONN
*I *4279:A1 I *D sky130_fd_sc_hd__a21o_1
*I *4278:A1 I *D sky130_fd_sc_hd__a21oi_1
*I *4277:A1 I *D sky130_fd_sc_hd__o21ai_1
*I *4280:B I *D sky130_fd_sc_hd__nand3_1
*I *4597:X O *D sky130_fd_sc_hd__dlygate4sd3_1
*CAP
1 *4279:A1 9.21309e-05
2 *4278:A1 0.000339734
3 *4277:A1 0
4 *4280:B 0.000320082
5 *4597:X 0.000349777
6 *344:14 0.00047305
7 *344:12 0.000543836
8 *344:10 0.000493041
9 *4276:A *344:10 0.000169683
10 *4279:A2 *4279:A1 9.67842e-05
11 *4280:C *4280:B 0.000576407
12 *4391:CLK *344:10 2.93747e-05
13 *4598:A *344:10 9.39056e-05
14 *4598:A *344:12 5.31444e-05
15 *4598:A *344:14 5.6652e-05
16 *219:19 *4280:B 1.14452e-05
17 *219:19 *344:14 0.000207507
18 *219:39 *344:10 2.55642e-05
19 *219:39 *344:12 0.00010394
20 *219:39 *344:14 8.72173e-05
21 *222:10 *344:14 0
22 *262:6 *4278:A1 0.000314157
23 *262:8 *4278:A1 0.000141954
24 *262:73 *4278:A1 5.3304e-05
25 *276:10 *344:10 0.000114595
*RES
1 *4597:X *344:10 44.5664 
2 *344:10 *344:12 1.55357 
3 *344:12 *344:14 4.01857 
4 *344:14 *4280:B 45.6436 
5 *344:14 *4277:A1 38 
6 *344:12 *4278:A1 43.3857 
7 *344:10 *4279:A1 39.5743 
*END

*D_NET *345 0.000685669
*CONN
*I *4391:D I *D sky130_fd_sc_hd__dfxtp_1
*I *4598:X O *D sky130_fd_sc_hd__dlygate4sd3_1
*CAP
1 *4391:D 0.000110058
2 *4598:X 6.90544e-05
3 *345:8 0.000179112
4 *4349:CLK *345:8 0.000114092
5 *276:10 *4391:D 0.000213352
*RES
1 *4598:X *345:8 39.5536 
2 *345:8 *4391:D 40.3666 
*END

*D_NET *346 0.0029572
*CONN
*I *4173:A1 I *D sky130_fd_sc_hd__mux2_1
*I *4170:A0 I *D sky130_fd_sc_hd__mux2_1
*I *4599:X O *D sky130_fd_sc_hd__dlygate4sd3_1
*CAP
1 *4173:A1 7.32813e-05
2 *4170:A0 0.0002214
3 *4599:X 0.000371846
4 *346:10 0.000666527
5 *4170:A0 *362:47 4.6318e-06
6 *4170:A0 *362:94 6.61686e-06
7 *4173:A1 *373:48 0.000144494
8 *346:10 *478:26 4.2812e-06
9 *346:10 *504:25 9.75912e-05
10 *4170:S *4170:A0 0.000247714
11 *4576:A *346:10 2.64616e-05
12 *4599:A *346:10 5.3304e-05
13 *7:16 *346:10 0.000404246
14 *133:93 *346:10 0
15 *143:24 *4170:A0 0.000142632
16 *153:55 *4170:A0 4.92689e-05
17 *153:55 *346:10 0.000180889
18 *154:10 *4170:A0 0
19 *154:10 *346:10 0
20 *259:64 *4170:A0 0
21 *327:8 *4170:A0 2.93335e-05
22 *327:18 *4170:A0 1.6891e-05
23 *329:10 *346:10 0.000215791
*RES
1 *4599:X *346:10 47.86 
2 *346:10 *4170:A0 43.2407 
3 *346:10 *4173:A1 39.5743 
*END

*D_NET *347 0.000664175
*CONN
*I *4174:B I *D sky130_fd_sc_hd__or2_1
*I *4600:X O *D sky130_fd_sc_hd__dlygate4sd3_1
*CAP
1 *4174:B 0
2 *4600:X 0.000249349
3 *347:6 0.000249349
4 *4575:A *347:6 7.87243e-05
5 *157:8 *347:6 8.6752e-05
*RES
1 *4600:X *347:6 27.4329 
2 *347:6 *4174:B 23 
*END

*D_NET *348 0.00175585
*CONN
*I *4175:B1 I *D sky130_fd_sc_hd__o211a_1
*I *4601:X O *D sky130_fd_sc_hd__dlygate4sd3_1
*CAP
1 *4175:B1 4.40784e-05
2 *4601:X 0.00050936
3 *348:10 0.000553438
4 *4175:B1 *4175:A1 5.79559e-05
5 *4175:B1 *362:35 0.000162947
6 *4175:B1 *456:12 1.02535e-05
7 *348:10 *4175:A1 2.21614e-05
8 *348:10 *495:12 4.56136e-05
9 *133:114 *348:10 3.22879e-05
10 *143:24 *4175:B1 4.344e-05
11 *153:55 *348:10 0
12 *157:8 *348:10 6.07005e-05
13 *328:10 *348:10 0.000213615
*RES
1 *4601:X *348:10 46.2029 
2 *348:10 *4175:B1 40.0714 
*END

*D_NET *349 0.000764219
*CONN
*I *4352:D I *D sky130_fd_sc_hd__dfxtp_1
*I *4602:X O *D sky130_fd_sc_hd__dlygate4sd3_1
*CAP
1 *4352:D 1.13183e-05
2 *4602:X 0.000210483
3 *349:10 0.000221801
4 *4352:D *373:48 1.64354e-05
5 *349:10 *362:35 0.000136738
6 *349:10 *495:12 0
7 *100:206 *349:10 0.000167443
*RES
1 *4602:X *349:10 41.8321 
2 *349:10 *4352:D 38.1916 
*END

*D_NET *350 0.00256927
*CONN
*I *4096:A I *D sky130_fd_sc_hd__inv_2
*I *4130:A I *D sky130_fd_sc_hd__or4bb_1
*I *4335:B1 I *D sky130_fd_sc_hd__a31o_1
*I *4603:X O *D sky130_fd_sc_hd__dlygate4sd3_1
*CAP
1 *4096:A 0
2 *4130:A 0
3 *4335:B1 0.000210712
4 *4603:X 0.000143456
5 *350:14 0.000707579
6 *350:6 0.000640323
7 *4335:B1 *4130:B 0.000172625
8 *4335:B1 *4335:A2 0.00010018
9 *350:14 *4151:A1 0
10 *350:14 *352:10 1.44813e-05
11 *96:10 *350:6 3.7122e-06
12 *129:10 *4335:B1 9.84851e-05
13 *129:10 *350:14 4.95081e-05
14 *142:69 *350:14 0
15 *252:70 *4335:B1 4.95081e-05
16 *256:16 *4335:B1 0.000228903
17 *259:14 *350:14 1.01436e-05
18 *259:20 *350:14 0.000139647
19 *316:25 *350:14 0
*RES
1 *4603:X *350:6 25.5271 
2 *350:6 *350:14 39.7357 
3 *350:14 *4335:B1 29.8564 
4 *350:14 *4130:A 23 
5 *350:6 *4096:A 23 
*END

*D_NET *351 0.00343268
*CONN
*I *4610:A I *D sky130_fd_sc_hd__buf_2
*I *4337:B2 I *D sky130_fd_sc_hd__o221a_1
*I *4418:Q O *D sky130_fd_sc_hd__dfxtp_1
*CAP
1 *4610:A 2.34823e-05
2 *4337:B2 0
3 *4418:Q 8.97084e-05
4 *351:22 0.000706729
5 *351:8 0.00081992
6 *351:8 *399:14 9.45591e-05
7 *351:22 *4337:A1 0.000139692
8 *351:22 *362:47 0
9 *351:22 *399:14 8.899e-05
10 *351:22 *495:33 0.000391384
11 *538:DIODE *351:22 4.75206e-05
12 *4138:A *351:22 0.000224345
13 *4337:A2 *351:22 4.344e-05
14 *4337:B1 *351:22 7.34336e-06
15 *15:10 *351:8 5.41288e-05
16 *95:6 *351:22 1.40958e-05
17 *100:189 *351:22 7.71739e-05
18 *136:10 *351:22 6.79006e-05
19 *258:8 *351:22 0.000363379
20 *327:18 *351:22 0.000178884
*RES
1 *4418:Q *351:8 25.5479 
2 *351:8 *351:22 48.2286 
3 *351:22 *4337:B2 23 
4 *351:8 *4610:A 23.4971 
*END

*D_NET *352 0.00086178
*CONN
*I *4417:D I *D sky130_fd_sc_hd__dfxtp_1
*I *4604:X O *D sky130_fd_sc_hd__dlygate4sd3_1
*CAP
1 *4417:D 8.45249e-06
2 *4604:X 0.000219811
3 *352:10 0.000228264
4 *94:6 *352:10 2.93845e-05
5 *257:10 *352:10 0
6 *259:14 *352:10 7.55491e-05
7 *259:20 *352:10 7.28526e-05
8 *264:88 *4417:D 1.64354e-05
9 *316:25 *352:10 0.000196549
10 *350:14 *352:10 1.44813e-05
*RES
1 *4604:X *352:10 43.3443 
2 *352:10 *4417:D 38.1916 
*END

*D_NET *353 0.00538934
*CONN
*I *4127:D_N I *D sky130_fd_sc_hd__or4b_1
*I *4310:A1 I *D sky130_fd_sc_hd__a31o_1
*I *4309:A1 I *D sky130_fd_sc_hd__o211a_1
*I *4308:A I *D sky130_fd_sc_hd__nand2_1
*I *4311:B I *D sky130_fd_sc_hd__and4_1
*I *4605:X O *D sky130_fd_sc_hd__dlygate4sd3_1
*CAP
1 *4127:D_N 0.000439895
2 *4310:A1 0
3 *4309:A1 0
4 *4308:A 0
5 *4311:B 3.05231e-05
6 *4605:X 0.000285979
7 *353:37 0.000554005
8 *353:29 0.000891364
9 *353:16 0.000420654
10 *353:12 5.27723e-05
11 *353:10 0.000725874
12 *4127:D_N *388:23 9.5877e-05
13 *4127:D_N *388:36 0.000139346
14 *4127:D_N *427:22 4.95081e-05
15 *353:10 *388:23 0
16 *353:16 *4310:B1 4.00259e-06
17 *353:29 *4304:B1 0
18 *353:29 *354:10 2.24151e-05
19 *353:37 *355:8 0
20 *4439:A *353:37 5.67058e-05
21 *144:24 *4127:D_N 0.000267173
22 *144:60 *4311:B 0.000185428
23 *144:60 *353:16 0.000139236
24 *234:24 *4127:D_N 5.38247e-05
25 *234:24 *353:10 1.01436e-05
26 *234:28 *4311:B 0.000185428
27 *234:28 *353:16 9.84851e-05
28 *238:10 *4127:D_N 0.000237814
29 *238:14 *353:16 2.18409e-05
30 *239:10 *353:37 6.07611e-06
31 *239:26 *353:29 0.000195248
32 *240:10 *353:29 0
33 *240:10 *353:37 0
34 *241:10 *4127:D_N 0
35 *264:41 *353:10 5.41385e-05
36 *264:41 *353:29 0
37 *320:8 *353:29 0.000165583
*RES
1 *4605:X *353:10 41.9564 
2 *353:10 *353:12 15 
3 *353:12 *353:16 2.07143 
4 *353:16 *4311:B 25.0507 
5 *353:16 *353:29 37.8921 
6 *353:29 *353:37 39.9014 
7 *353:37 *4308:A 23 
8 *353:29 *4309:A1 23 
9 *353:12 *4310:A1 23 
10 *353:10 *4127:D_N 47.8186 
*END

*D_NET *354 0.00104607
*CONN
*I *4309:B1 I *D sky130_fd_sc_hd__o211a_1
*I *4606:X O *D sky130_fd_sc_hd__dlygate4sd3_1
*CAP
1 *4309:B1 0
2 *4606:X 0.000346176
3 *354:10 0.000346176
4 *354:10 *4304:B1 0
5 *354:10 *389:10 0
6 *239:26 *354:10 0.00019747
7 *264:41 *354:10 2.29192e-05
8 *320:8 *354:10 0.000110913
9 *353:29 *354:10 2.24151e-05
*RES
1 *4606:X *354:10 44.2971 
2 *354:10 *4309:B1 38 
*END

*D_NET *355 0.00026458
*CONN
*I *4407:D I *D sky130_fd_sc_hd__dfxtp_1
*I *4439:X O *D sky130_fd_sc_hd__dlygate4sd3_1
*CAP
1 *4407:D 7.17495e-06
2 *4439:X 0.000103938
3 *355:8 0.000111113
4 *239:20 *4407:D 1.64354e-05
5 *240:10 *4407:D 1.64354e-05
6 *240:10 *355:8 9.48381e-06
7 *353:37 *355:8 0
*RES
1 *4439:X *355:8 39.5536 
2 *355:8 *4407:D 38.1916 
*END

*D_NET *356 0.00690581
*CONN
*I *4099:A I *D sky130_fd_sc_hd__inv_2
*I *4143:A1 I *D sky130_fd_sc_hd__a31o_1
*I *4243:D I *D sky130_fd_sc_hd__or4_1
*I *4136:B I *D sky130_fd_sc_hd__or4_4
*I *4134:B I *D sky130_fd_sc_hd__or3_1
*I *4242:A3 I *D sky130_fd_sc_hd__o31a_1
*I *4245:A3 I *D sky130_fd_sc_hd__o311a_2
*I *4145:B2 I *D sky130_fd_sc_hd__a22o_1
*I *4440:X O *D sky130_fd_sc_hd__dlygate4sd3_1
*CAP
1 *4099:A 0.000149209
2 *4143:A1 0
3 *4243:D 2.84143e-05
4 *4136:B 0
5 *4134:B 0.000170946
6 *4242:A3 0.00034255
7 *4245:A3 0.000116446
8 *4145:B2 0
9 *4440:X 9.63036e-05
10 *356:78 0.000313035
11 *356:65 0.00029213
12 *356:49 0.000211174
13 *356:27 0.000625361
14 *356:18 0.00055919
15 *356:12 0.000837989
16 *356:8 0.000601129
17 *4099:A *530:DIODE 5.67058e-05
18 *4099:A *4141:A 8.1009e-05
19 *4099:A *366:12 1.34542e-05
20 *4099:A *373:272 4.34876e-05
21 *4099:A *373:274 6.69016e-05
22 *4099:A *488:56 2.4754e-05
23 *4099:A *488:66 2.93845e-05
24 *4134:B *4136:A 2.95972e-05
25 *4242:A3 *460:54 0
26 *4242:A3 *488:78 0.000179682
27 *4242:A3 *488:85 1.37349e-05
28 *4243:D *488:66 9.67842e-05
29 *4245:A3 *488:78 0.00022295
30 *356:18 *532:DIODE 9.67842e-05
31 *356:18 *4122:A1 0
32 *356:27 *460:54 0
33 *356:27 *488:78 3.0647e-05
34 *356:49 *4136:A 5.67058e-05
35 *4136:C *4134:B 0.000115001
36 *4143:B1 *4099:A 1.28818e-05
37 *4145:A2 *356:18 0.000159907
38 *4145:A2 *356:49 2.18506e-05
39 *4375:CLK *4243:D 9.67842e-05
40 *4380:CLK *356:18 0.000349818
41 *61:12 *4245:A3 0.000214016
42 *122:32 *356:12 0
43 *122:38 *356:12 1.83667e-05
44 *122:38 *356:65 6.07929e-05
45 *122:38 *356:78 9.59831e-05
46 *122:45 *356:8 0.00014196
47 *134:10 *356:12 5.31444e-05
48 *139:10 *4099:A 9.84851e-05
49 *139:10 *356:78 3.70094e-05
50 *140:51 *356:18 2.96154e-05
51 *140:51 *356:27 6.07611e-06
52 *140:209 *356:27 0
53 *151:12 *356:12 0
54 *151:12 *356:65 0
55 *151:12 *356:78 0
56 *199:10 *4242:A3 7.65863e-06
57 *341:19 *4242:A3 0
58 *341:19 *356:27 0
59 *343:10 *356:27 0
*RES
1 *4440:X *356:8 39.5743 
2 *356:8 *356:12 22.1879 
3 *356:12 *356:18 23.1407 
4 *356:18 *4145:B2 38 
5 *356:18 *356:27 2.96214 
6 *356:27 *4245:A3 42.4329 
7 *356:27 *4242:A3 44.0486 
8 *356:12 *356:49 1.09786 
9 *356:49 *4134:B 25.5479 
10 *356:49 *4136:B 23 
11 *356:8 *356:65 1.90571 
12 *356:65 *4243:D 39.0979 
13 *356:65 *356:78 17.9621 
14 *356:78 *4143:A1 23 
15 *356:78 *4099:A 27.4536 
*END

*D_NET *357 0.00312179
*CONN
*I *4237:B1 I *D sky130_fd_sc_hd__a21o_1
*I *4238:A I *D sky130_fd_sc_hd__nand3_1
*I *4140:D_N I *D sky130_fd_sc_hd__or4b_1
*I *4441:X O *D sky130_fd_sc_hd__dlygate4sd3_1
*CAP
1 *4237:B1 5.79042e-05
2 *4238:A 0.000164601
3 *4140:D_N 0.000208455
4 *4441:X 0
5 *357:8 0.000509633
6 *357:4 0.00019448
7 *4140:D_N *379:40 4.95081e-05
8 *4238:A *4234:A 0.000313249
9 *4140:A *4140:D_N 0.000240093
10 *4140:A *357:8 2.24973e-05
11 *4237:A1 *4237:B1 0.000140259
12 *4238:B *4238:A 0.000202834
13 *4238:C *4238:A 0.000132126
14 *57:8 *4140:D_N 9.48381e-06
15 *57:8 *357:8 6.70914e-05
16 *192:16 *4238:A 0.00026808
17 *192:18 *4238:A 0.000137651
18 *195:10 *4237:B1 1.94812e-05
19 *268:23 *4140:D_N 0.0002263
20 *269:10 *4140:D_N 4.6318e-06
21 *270:10 *357:8 3.70187e-05
22 *270:16 *357:8 0.000116408
*RES
1 *4441:X *357:4 23 
2 *357:4 *357:8 17.9621 
3 *357:8 *4140:D_N 43.4893 
4 *357:8 *4238:A 45.4779 
5 *357:4 *4237:B1 24.5743 
*END

*D_NET *358 0.000536191
*CONN
*I *4239:C I *D sky130_fd_sc_hd__and3_1
*I *4442:X O *D sky130_fd_sc_hd__dlygate4sd3_1
*CAP
1 *4239:C 0.000164205
2 *4442:X 7.63852e-05
3 *358:8 0.00024059
4 *4239:A *4239:C 5.50106e-05
5 *4464:A *358:8 0
6 *196:10 *358:8 0
*RES
1 *4442:X *358:8 39.2014 
2 *358:8 *4239:C 40.1336 
*END

*D_NET *359 0.000278759
*CONN
*I *4377:D I *D sky130_fd_sc_hd__dfxtp_1
*I *4443:X O *D sky130_fd_sc_hd__dlygate4sd3_1
*CAP
1 *4377:D 1.31802e-05
2 *4443:X 0.000126199
3 *359:8 0.00013938
4 *196:10 *359:8 0
*RES
1 *4443:X *359:8 40.2579 
2 *359:8 *4377:D 38.1916 
*END

*D_NET *360 0.00760039
*CONN
*I *4285:A1 I *D sky130_fd_sc_hd__a2111o_1
*I *4126:B I *D sky130_fd_sc_hd__and3_1
*I *4102:A I *D sky130_fd_sc_hd__inv_2
*I *4169:A I *D sky130_fd_sc_hd__nand2_2
*I *4191:A1 I *D sky130_fd_sc_hd__a31o_1
*I *4287:A I *D sky130_fd_sc_hd__or2_1
*I *4299:A2 I *D sky130_fd_sc_hd__o31a_2
*I *4444:X O *D sky130_fd_sc_hd__dlygate4sd3_1
*CAP
1 *4285:A1 0
2 *4126:B 8.08673e-05
3 *4102:A 9.24908e-05
4 *4169:A 0.000201938
5 *4191:A1 0
6 *4287:A 0
7 *4299:A2 0.000228079
8 *4444:X 0
9 *360:75 0.00038205
10 *360:62 0.000674438
11 *360:20 0.000973104
12 *360:14 0.000797018
13 *360:10 0.000704427
14 *360:4 0.00073126
15 *4126:B *4285:A2 8.06039e-05
16 *4126:B *429:14 4.334e-05
17 *4299:A2 *4299:A3 2.55136e-05
18 *4299:A2 *4299:B1 6.29487e-05
19 *4299:A2 *367:22 0
20 *4299:A2 *427:22 7.53384e-06
21 *360:20 *394:21 0
22 *360:20 *396:8 0
23 *360:75 *514:20 1.02562e-05
24 *4148:B *360:10 0.000315857
25 *4148:B *360:62 0.000136143
26 *4149:A *4169:A 0.000194345
27 *4191:A2 *360:20 5.67058e-05
28 *4351:CLK *360:75 0
29 *100:117 *360:75 0.000124102
30 *100:123 *4126:B 5.76819e-05
31 *100:123 *360:75 1.14452e-05
32 *100:174 *4102:A 9.67842e-05
33 *100:174 *360:75 0.0002644
34 *100:189 *4102:A 5.50106e-05
35 *130:29 *4169:A 3.70094e-05
36 *130:29 *360:10 0.000168102
37 *130:29 *360:20 0
38 *133:51 *4169:A 0.000185434
39 *142:10 *4102:A 9.30151e-05
40 *142:10 *360:62 0.0002263
41 *143:14 *4169:A 1.5769e-05
42 *143:74 *4169:A 1.19796e-05
43 *166:8 *360:20 4.66047e-05
44 *167:8 *360:20 0.00014196
45 *168:27 *4169:A 4.23714e-05
46 *265:57 *360:75 0
47 *335:18 *360:10 4.66047e-05
48 *336:10 *360:20 0
49 *337:8 *360:20 0.000176893
*RES
1 *4444:X *360:4 23 
2 *360:4 *360:10 22.7679 
3 *360:10 *360:14 15.6214 
4 *360:14 *360:20 30.1007 
5 *360:20 *4299:A2 41.6457 
6 *360:20 *4287:A 38 
7 *360:14 *4191:A1 23 
8 *360:10 *4169:A 43.365 
9 *360:4 *360:62 5.55143 
10 *360:62 *4102:A 25.5479 
11 *360:62 *360:75 21.1314 
12 *360:75 *4126:B 40.2579 
13 *360:75 *4285:A1 38 
*END

*D_NET *361 0.0005793
*CONN
*I *4357:D I *D sky130_fd_sc_hd__dfxtp_1
*I *4445:X O *D sky130_fd_sc_hd__dlygate4sd3_1
*CAP
1 *4357:D 5.11919e-05
2 *4445:X 0.000123275
3 *361:8 0.000174467
4 *133:42 *4357:D 0.000144256
5 *143:74 *361:8 0
6 *168:6 *4357:D 4.9054e-06
7 *168:14 *361:8 2.99716e-05
8 *168:27 *4357:D 5.12328e-05
9 *168:27 *361:8 0
10 *264:117 *361:8 0
*RES
1 *4445:X *361:8 40.2579 
2 *361:8 *4357:D 39.6209 
*END

*D_NET *362 0.0290481
*CONN
*I *4160:C1 I *D sky130_fd_sc_hd__o211a_1
*I *4175:C1 I *D sky130_fd_sc_hd__o211a_1
*I *4181:C1 I *D sky130_fd_sc_hd__o211a_1
*I *4158:C1 I *D sky130_fd_sc_hd__o211a_1
*I *4195:B1 I *D sky130_fd_sc_hd__o211a_1
*I *4193:B1 I *D sky130_fd_sc_hd__o211a_1
*I *4197:B1 I *D sky130_fd_sc_hd__o211a_1
*I *4199:B1 I *D sky130_fd_sc_hd__o211a_1
*I *4178:C1 I *D sky130_fd_sc_hd__o211a_1
*I *4184:C1 I *D sky130_fd_sc_hd__o211a_1
*I *4187:C1 I *D sky130_fd_sc_hd__o211a_1
*I *4172:C1 I *D sky130_fd_sc_hd__o211a_1
*I *4126:A I *D sky130_fd_sc_hd__and3_1
*I *4132:A1 I *D sky130_fd_sc_hd__a31o_1
*I *4147:A1 I *D sky130_fd_sc_hd__a31o_1
*I *4156:C1 I *D sky130_fd_sc_hd__o211a_1
*I *4435:X O *D sky130_fd_sc_hd__buf_4
*CAP
1 *4160:C1 0
2 *4175:C1 0
3 *4181:C1 5.70838e-05
4 *4158:C1 3.80122e-05
5 *4195:B1 0
6 *4193:B1 9.27812e-05
7 *4197:B1 0
8 *4199:B1 5.38167e-05
9 *4178:C1 0
10 *4184:C1 0
11 *4187:C1 3.82061e-05
12 *4172:C1 9.97079e-05
13 *4126:A 0
14 *4132:A1 0.000242341
15 *4147:A1 2.30556e-05
16 *4156:C1 0.000444885
17 *4435:X 9.30394e-05
18 *362:271 0.000296162
19 *362:238 0.00104419
20 *362:219 0.000356045
21 *362:192 0.000458504
22 *362:185 0.000270289
23 *362:170 0.000615775
24 *362:164 0.00148332
25 *362:157 0.000265387
26 *362:145 0.000721805
27 *362:137 0.000610444
28 *362:130 0.000334319
29 *362:117 0.000968757
30 *362:107 0.00101185
31 *362:94 0.000845538
32 *362:70 0.000667576
33 *362:47 0.00142329
34 *362:37 0.00157795
35 *362:35 0.00073886
36 *362:10 0.00124203
37 *362:6 0.00044749
38 *4132:A1 *4146:C 0.000106067
39 *4156:C1 *368:8 0.000159947
40 *4156:C1 *373:18 0.000271167
41 *4156:C1 *478:39 0.000273968
42 *4158:C1 *4158:A1 5.3304e-05
43 *4172:C1 *363:12 6.17437e-06
44 *4172:C1 *364:10 0.000139357
45 *4181:C1 *502:10 5.58473e-05
46 *4187:C1 *373:60 9.90162e-05
47 *4187:C1 *373:64 3.22879e-05
48 *4193:B1 *4197:A1 0.000139754
49 *4199:B1 *460:179 5.67058e-05
50 *362:6 *373:27 5.50049e-05
51 *362:6 *497:10 3.7122e-06
52 *362:10 *373:18 6.32688e-05
53 *362:10 *478:39 0.000139647
54 *362:35 *4175:A1 2.1819e-05
55 *362:35 *4344:D 2.27575e-05
56 *362:35 *456:12 9.86236e-05
57 *362:47 *4147:A3 0.000101925
58 *362:47 *367:6 1.59071e-05
59 *362:47 *367:14 2.07484e-05
60 *362:47 *495:33 0
61 *362:70 *4146:C 7.44257e-05
62 *362:70 *367:14 1.74129e-05
63 *362:94 *363:12 7.13587e-05
64 *362:94 *364:10 0.000173898
65 *362:94 *373:48 0.000101987
66 *362:107 *373:48 0.000212621
67 *362:107 *514:20 0
68 *362:117 *373:60 0.000590669
69 *362:117 *514:8 4.75206e-05
70 *362:130 *508:10 0
71 *362:130 *509:8 5.56203e-05
72 *362:137 *373:48 0.000139657
73 *362:137 *373:343 0.000248754
74 *362:137 *502:10 8.62783e-05
75 *362:145 *551:DIODE 2.94414e-05
76 *362:145 *363:12 3.70876e-05
77 *362:145 *491:12 4.46207e-05
78 *362:145 *491:24 2.77188e-05
79 *362:157 *551:DIODE 9.84851e-05
80 *362:157 *479:20 2.5871e-05
81 *362:164 *363:12 2.5415e-05
82 *362:164 *491:12 0.000156061
83 *362:170 *479:20 0
84 *362:170 *491:12 0.000368862
85 *362:185 *460:192 0
86 *362:192 *4197:A1 5.90675e-06
87 *362:219 *4195:A1 0.000197175
88 *362:219 *4197:A1 4.79641e-05
89 *362:238 *4530:A 6.7177e-06
90 *362:238 *493:10 0.000141879
91 *362:238 *495:12 0.000475728
92 *362:271 *478:39 0.00045179
93 *362:271 *497:10 1.59094e-05
94 *571:DIODE *362:170 0
95 *4132:A3 *4132:A1 5.50049e-05
96 *4132:B1 *4132:A1 5.41288e-05
97 *4138:A *362:47 0
98 *4170:A0 *362:47 4.6318e-06
99 *4170:A0 *362:94 6.61686e-06
100 *4170:S *362:94 0.000167452
101 *4173:S *362:94 0.000229793
102 *4175:B1 *362:35 0.000162947
103 *4181:A2 *4181:C1 5.3304e-05
104 *4181:A2 *362:145 9.41704e-05
105 *4183:B *362:117 5.67058e-05
106 *4184:A2 *362:130 1.52362e-05
107 *4193:A2 *4193:B1 0.000181092
108 *4197:A2 *362:185 1.14452e-05
109 *4197:A2 *362:219 3.35885e-06
110 *4203:C1 *362:130 0
111 *4344:CLK *362:35 4.67488e-05
112 *4427:A *362:238 5.67058e-05
113 *4447:A *362:94 0.000308033
114 *4571:A *362:117 0.000137651
115 *4602:A *362:35 9.75779e-05
116 *15:10 *4156:C1 0
117 *23:8 *362:47 2.39018e-05
118 *35:10 *362:157 0.000126201
119 *95:14 *362:47 0.000255492
120 *97:77 *4181:C1 5.3304e-05
121 *97:77 *362:170 1.69668e-05
122 *97:88 *362:170 4.21594e-06
123 *97:88 *362:185 9.78675e-05
124 *97:103 *4193:B1 0.000129522
125 *97:103 *362:219 5.50049e-05
126 *97:128 *362:219 7.3525e-05
127 *100:127 *362:70 2.50227e-05
128 *100:255 *362:238 0.000155849
129 *133:93 *4172:C1 5.61255e-06
130 *133:122 *4156:C1 3.1157e-05
131 *133:122 *362:271 0.00011218
132 *134:93 *362:238 4.08537e-05
133 *134:207 *362:238 5.61714e-05
134 *141:10 *4132:A1 0
135 *142:119 *362:145 4.6318e-06
136 *143:14 *4172:C1 9.338e-05
137 *143:24 *362:35 3.18142e-05
138 *143:24 *362:107 6.48142e-05
139 *143:31 *362:107 0.000237255
140 *143:31 *362:137 0.000730003
141 *143:56 *4181:C1 3.53546e-05
142 *143:56 *362:137 1.14452e-05
143 *143:74 *362:130 7.75736e-06
144 *143:80 *4187:C1 0.000228903
145 *143:80 *362:117 7.1349e-05
146 *146:10 *4156:C1 6.64654e-05
147 *146:20 *362:117 0.00012103
148 *163:10 *362:130 0.000306202
149 *165:10 *362:130 0
150 *170:8 *362:219 2.01531e-05
151 *171:10 *362:185 6.68793e-05
152 *225:10 *362:47 0.000111852
153 *226:57 *362:47 0
154 *226:57 *362:70 9.58714e-05
155 *259:64 *362:157 9.10621e-05
156 *259:64 *362:164 0
157 *259:64 *362:170 0
158 *265:12 *362:70 8.52625e-05
159 *267:6 *362:238 0.00013489
160 *267:8 *362:238 0.000343508
161 *267:14 *4181:C1 7.37814e-06
162 *267:65 *362:157 0
163 *267:130 *362:219 0.000139647
164 *267:159 *362:238 0
165 *301:8 *362:185 0
166 *301:27 *362:170 0
167 *305:10 *362:164 2.54046e-05
168 *305:10 *362:238 9.84794e-05
169 *306:30 *362:130 7.66188e-05
170 *327:18 *362:47 2.52956e-05
171 *331:25 *362:137 8.62783e-05
172 *339:16 *362:271 1.05441e-05
173 *349:10 *362:35 0.000136738
174 *351:22 *362:47 0
*RES
1 *4435:X *362:6 24.5743 
2 *362:6 *362:10 16.9057 
3 *362:10 *4156:C1 48.6886 
4 *362:10 *362:35 28.0707 
5 *362:35 *362:37 15 
6 *362:37 *362:47 32.2964 
7 *362:47 *4147:A1 23.4971 
8 *362:47 *362:70 36.9186 
9 *362:70 *4132:A1 27.9714 
10 *362:70 *4126:A 23 
11 *362:37 *362:94 27.2836 
12 *362:94 *4172:C1 25.9 
13 *362:94 *362:107 19.0186 
14 *362:107 *362:117 29.3757 
15 *362:117 *4187:C1 25.5271 
16 *362:117 *362:130 38.9486 
17 *362:130 *4184:C1 23 
18 *362:107 *362:137 10.005 
19 *362:137 *362:145 34.4329 
20 *362:145 *362:157 49.8264 
21 *362:157 *4178:C1 23 
22 *362:145 *362:164 4.37071 
23 *362:164 *362:170 6.89786 
24 *362:170 *4199:B1 39.2429 
25 *362:170 *362:185 20.7793 
26 *362:185 *4197:B1 23 
27 *362:185 *362:192 0.497143 
28 *362:192 *4193:B1 26.5007 
29 *362:192 *362:219 38.8243 
30 *362:219 *4195:B1 23 
31 *362:164 *362:238 48.3736 
32 *362:238 *4158:C1 38.6214 
33 *362:137 *4181:C1 39.4707 
34 *362:35 *4175:C1 23 
35 *362:6 *362:271 37.2293 
36 *362:271 *4160:C1 23 
*END

*D_NET *363 0.0038085
*CONN
*I *4172:A1 I *D sky130_fd_sc_hd__o211a_1
*I *4446:X O *D sky130_fd_sc_hd__dlygate4sd3_1
*CAP
1 *4172:A1 0
2 *4446:X 0
3 *363:12 0.00063494
4 *363:6 0.00063494
5 *363:12 *373:48 0.000310641
6 *363:12 *503:8 0.000169683
7 *4172:C1 *363:12 6.17437e-06
8 *4447:A *363:12 0.000225393
9 *133:93 *363:12 2.18506e-05
10 *142:10 *363:12 7.81176e-05
11 *142:28 *363:12 0.000151909
12 *142:119 *363:12 0.000265482
13 *259:64 *363:12 0.00117551
14 *362:94 *363:12 7.13587e-05
15 *362:145 *363:12 3.70876e-05
16 *362:164 *363:12 2.5415e-05
*RES
1 *4446:X *363:6 38 
2 *363:6 *363:12 34.9479 
3 *363:12 *4172:A1 23 
*END

*D_NET *364 0.00115304
*CONN
*I *4351:D I *D sky130_fd_sc_hd__dfxtp_1
*I *4447:X O *D sky130_fd_sc_hd__dlygate4sd3_1
*CAP
1 *4351:D 4.62744e-06
2 *4447:X 0.000299161
3 *364:10 0.000303788
4 *4351:D *456:12 1.74843e-05
5 *364:10 *513:8 9.88678e-05
6 *4172:C1 *364:10 0.000139357
7 *4351:CLK *4351:D 1.64354e-05
8 *4351:CLK *364:10 1.01436e-05
9 *143:24 *364:10 8.92738e-05
10 *362:94 *364:10 0.000173898
*RES
1 *4447:X *364:10 44.09 
2 *364:10 *4351:D 38.1916 
*END

*D_NET *365 0.00244926
*CONN
*I *4232:A I *D sky130_fd_sc_hd__and4_1
*I *4140:B I *D sky130_fd_sc_hd__or4b_1
*I *4231:B1 I *D sky130_fd_sc_hd__a31o_1
*I *4448:X O *D sky130_fd_sc_hd__dlygate4sd3_1
*CAP
1 *4232:A 0.000283167
2 *4140:B 0
3 *4231:B1 0
4 *4448:X 0
5 *365:14 0.000421248
6 *365:6 0.000627775
7 *365:4 0.000489694
8 *365:14 *366:8 4.08641e-05
9 *365:14 *379:40 0.000143772
10 *365:14 *488:66 0
11 *4140:A *365:6 2.07242e-05
12 *4140:A *365:14 4.04598e-06
13 *4450:A *365:14 5.67058e-05
14 *4559:A *365:14 0
15 *151:12 *365:14 0
16 *188:32 *365:14 0
17 *268:23 *4232:A 0.000189118
18 *268:23 *365:6 9.91895e-05
19 *288:10 *365:14 7.29586e-05
*RES
1 *4448:X *365:4 23 
2 *365:4 *365:6 3.00357 
3 *365:6 *365:14 37.6229 
4 *365:14 *4231:B1 23 
5 *365:6 *4140:B 23 
6 *365:4 *4232:A 27.4536 
*END

*D_NET *366 0.00171921
*CONN
*I *4142:C I *D sky130_fd_sc_hd__and3_1
*I *4141:A I *D sky130_fd_sc_hd__inv_2
*I *4450:X O *D sky130_fd_sc_hd__dlygate4sd3_1
*CAP
1 *4142:C 0
2 *4141:A 0.000323512
3 *4450:X 6.55145e-05
4 *366:12 0.00053727
5 *366:8 0.000279273
6 *4141:A *373:274 1.57571e-05
7 *4141:A *373:276 7.05498e-05
8 *366:12 *488:56 0.000230604
9 *366:12 *488:66 5.50106e-05
10 *4099:A *4141:A 8.1009e-05
11 *4099:A *366:12 1.34542e-05
12 *4143:B1 *4141:A 6.39489e-06
13 *151:12 *366:8 0
14 *365:14 *366:8 4.08641e-05
*RES
1 *4450:X *366:8 39.2014 
2 *366:8 *366:12 18.5629 
3 *366:12 *4141:A 28.8207 
4 *366:12 *4142:C 23 
*END

*D_NET *367 0.00633398
*CONN
*I *4139:B2 I *D sky130_fd_sc_hd__a221o_1
*I *4147:A2 I *D sky130_fd_sc_hd__a31o_1
*I *4285:A2 I *D sky130_fd_sc_hd__a2111o_1
*I *4287:B I *D sky130_fd_sc_hd__or2_1
*I *4299:A3 I *D sky130_fd_sc_hd__o31a_2
*I *4451:X O *D sky130_fd_sc_hd__dlygate4sd3_1
*CAP
1 *4139:B2 0
2 *4147:A2 2.30556e-05
3 *4285:A2 0.000293772
4 *4287:B 0
5 *4299:A3 4.958e-05
6 *4451:X 0
7 *367:64 0.000113298
8 *367:22 0.000873458
9 *367:14 0.00154513
10 *367:6 0.000794343
11 *367:4 0.000457104
12 *4285:A2 *4101:A 0
13 *4285:A2 *4300:B 0
14 *4285:A2 *394:43 0
15 *4285:A2 *423:8 5.56203e-05
16 *4299:A3 *4299:B1 9.58444e-05
17 *4299:A3 *427:12 0.000146998
18 *367:6 *4147:A3 0.000187067
19 *367:14 *423:8 4.6318e-06
20 *367:22 *4300:A 8.1796e-05
21 *367:22 *427:12 0.000386743
22 *528:DIODE *367:64 3.01354e-05
23 *4126:B *4285:A2 8.06039e-05
24 *4132:A3 *4285:A2 4.85126e-05
25 *4132:A3 *367:14 4.43614e-05
26 *4297:B *367:64 6.48049e-05
27 *4299:A2 *4299:A3 2.55136e-05
28 *4299:A2 *367:22 0
29 *4507:A *367:14 9.58714e-05
30 *100:123 *4285:A2 0
31 *100:127 *4285:A2 0
32 *100:127 *367:14 0
33 *135:8 *367:64 6.32792e-05
34 *136:10 *367:64 0.000195248
35 *226:21 *367:14 0
36 *226:21 *367:22 1.73274e-05
37 *226:32 *367:22 0.000114276
38 *226:57 *367:14 0.000153455
39 *226:57 *367:22 8.25698e-05
40 *233:16 *367:6 9.5877e-05
41 *233:16 *367:64 5.50049e-05
42 *265:57 *4285:A2 4.6318e-06
43 *362:47 *367:6 1.59071e-05
44 *362:47 *367:14 2.07484e-05
45 *362:70 *367:14 1.74129e-05
*RES
1 *4451:X *367:4 23 
2 *367:4 *367:6 6.33857 
3 *367:6 *367:14 23.5136 
4 *367:14 *367:22 28.5264 
5 *367:22 *4299:A3 25.5686 
6 *367:22 *4287:B 23 
7 *367:14 *4285:A2 43.075 
8 *367:6 *4147:A2 23.4971 
9 *367:4 *367:64 33.5629 
10 *367:64 *4139:B2 23 
*END

*D_NET *368 0.00124833
*CONN
*I *4339:D I *D sky130_fd_sc_hd__dfxtp_1
*I *4452:X O *D sky130_fd_sc_hd__dlygate4sd3_1
*CAP
1 *4339:D 7.66007e-05
2 *4452:X 0.00038225
3 *368:8 0.000458851
4 *4339:D *4155:A 0.000124697
5 *368:8 *456:25 4.13537e-05
6 *4156:C1 *368:8 0.000159947
7 *4403:CLK *368:8 0
8 *12:9 *368:8 0
9 *15:10 *368:8 0
10 *133:122 *368:8 4.6318e-06
11 *265:130 *368:8 0
*RES
1 *4452:X *368:8 45.1879 
2 *368:8 *4339:D 39.4137 
*END

*D_NET *369 0.00100831
*CONN
*I *4274:A I *D sky130_fd_sc_hd__and4_1
*I *4275:A1 I *D sky130_fd_sc_hd__o21ai_1
*I *4453:X O *D sky130_fd_sc_hd__dlygate4sd3_1
*CAP
1 *4274:A 0
2 *4275:A1 1.08768e-05
3 *4453:X 0.00042359
4 *369:12 1.08768e-05
5 *369:10 0.00042359
6 *369:10 *391:14 4.6318e-06
7 *140:169 *4275:A1 5.67058e-05
8 *220:8 *369:10 0
9 *262:8 *4275:A1 5.50049e-05
10 *262:55 *369:10 0
11 *275:6 *369:10 2.30292e-05
*RES
1 *4453:X *369:10 45.1671 
2 *369:10 *369:12 15 
3 *369:12 *4275:A1 23.6214 
4 *369:12 *4274:A 23 
*END

*D_NET *370 6.69045e-05
*CONN
*I *4276:B I *D sky130_fd_sc_hd__nor2_1
*I *4454:X O *D sky130_fd_sc_hd__dlygate4sd3_1
*CAP
1 *4276:B 3.34522e-05
2 *4454:X 3.34522e-05
*RES
1 *4454:X *4276:B 46.6214 
*END

*D_NET *371 0.000899797
*CONN
*I *4390:D I *D sky130_fd_sc_hd__dfxtp_1
*I *4455:X O *D sky130_fd_sc_hd__dlygate4sd3_1
*CAP
1 *4390:D 1.31802e-05
2 *4455:X 0.000324086
3 *371:10 0.000337266
4 *220:8 *371:10 0.000225265
*RES
1 *4455:X *371:10 44.1729 
2 *371:10 *4390:D 38.1916 
*END

*D_NET *372 0.00165989
*CONN
*I *4297:A I *D sky130_fd_sc_hd__xor2_1
*I *4125:D_N I *D sky130_fd_sc_hd__or4b_1
*I *4137:A I *D sky130_fd_sc_hd__or4b_1
*I *4456:X O *D sky130_fd_sc_hd__dlygate4sd3_1
*CAP
1 *4297:A 0
2 *4125:D_N 5.77483e-05
3 *4137:A 1.17716e-05
4 *4456:X 5.94313e-05
5 *372:21 0.000251569
6 *372:6 0.000265023
7 *527:DIODE *372:6 0.00010018
8 *4137:B *372:6 9.30054e-05
9 *4297:B *372:21 0.000100413
10 *100:135 *4125:D_N 0.000143543
11 *100:135 *372:21 0.000175403
12 *135:8 *372:21 0.000133649
13 *225:10 *372:21 0
14 *230:35 *4137:A 5.56279e-05
15 *230:35 *372:6 0.00011246
16 *310:14 *4137:A 5.79559e-05
17 *310:14 *372:6 4.21048e-05
*RES
1 *4456:X *372:6 25.5271 
2 *372:6 *4137:A 23.6214 
3 *372:6 *372:21 34.6607 
4 *372:21 *4125:D_N 24.5743 
5 *372:21 *4297:A 23 
*END

*D_NET *373 0.040549
*CONN
*I *551:DIODE I *D sky130_fd_sc_hd__diode_2
*I *4201:B1 I *D sky130_fd_sc_hd__o211a_1
*I *4203:B1 I *D sky130_fd_sc_hd__o211a_1
*I *552:DIODE I *D sky130_fd_sc_hd__diode_2
*I *573:DIODE I *D sky130_fd_sc_hd__diode_2
*I *559:DIODE I *D sky130_fd_sc_hd__diode_2
*I *523:DIODE I *D sky130_fd_sc_hd__diode_2
*I *556:DIODE I *D sky130_fd_sc_hd__diode_2
*I *530:DIODE I *D sky130_fd_sc_hd__diode_2
*I *4142:B I *D sky130_fd_sc_hd__and3_1
*I *4143:A2 I *D sky130_fd_sc_hd__a31o_1
*I *536:DIODE I *D sky130_fd_sc_hd__diode_2
*I *4152:A2 I *D sky130_fd_sc_hd__a32o_1
*I *529:DIODE I *D sky130_fd_sc_hd__diode_2
*I *4145:A1 I *D sky130_fd_sc_hd__a22o_1
*I *532:DIODE I *D sky130_fd_sc_hd__diode_2
*I *4241:C1 I *D sky130_fd_sc_hd__o211a_1
*I *553:DIODE I *D sky130_fd_sc_hd__diode_2
*I *554:DIODE I *D sky130_fd_sc_hd__diode_2
*I *4205:B1 I *D sky130_fd_sc_hd__o211a_1
*I *4207:B1 I *D sky130_fd_sc_hd__o211a_1
*I *4100:A I *D sky130_fd_sc_hd__inv_4
*I *4284:A2 I *D sky130_fd_sc_hd__a31o_1
*I *4190:B I *D sky130_fd_sc_hd__and3_1
*I *550:DIODE I *D sky130_fd_sc_hd__diode_2
*I *4189:C1 I *D sky130_fd_sc_hd__o211a_1
*I *549:DIODE I *D sky130_fd_sc_hd__diode_2
*I *535:DIODE I *D sky130_fd_sc_hd__diode_2
*I *4151:A1 I *D sky130_fd_sc_hd__a22o_1
*I *4435:A I *D sky130_fd_sc_hd__buf_4
*I *572:DIODE I *D sky130_fd_sc_hd__diode_2
*I *4436:X O *D sky130_fd_sc_hd__buf_4
*CAP
1 *551:DIODE 0.000119992
2 *4201:B1 2.0995e-05
3 *4203:B1 0.000127229
4 *552:DIODE 0
5 *573:DIODE 0
6 *559:DIODE 0
7 *523:DIODE 0
8 *556:DIODE 0
9 *530:DIODE 0.000115652
10 *4142:B 0
11 *4143:A2 4.01155e-05
12 *536:DIODE 0
13 *4152:A2 0.000330974
14 *529:DIODE 4.72659e-05
15 *4145:A1 6.31838e-05
16 *532:DIODE 7.68064e-05
17 *4241:C1 0
18 *553:DIODE 0.000131838
19 *554:DIODE 4.25104e-05
20 *4205:B1 0.000169173
21 *4207:B1 0
22 *4100:A 0
23 *4284:A2 0
24 *4190:B 0
25 *550:DIODE 0
26 *4189:C1 2.77218e-05
27 *549:DIODE 0.000308822
28 *535:DIODE 5.43738e-05
29 *4151:A1 0.000150856
30 *4435:A 0
31 *572:DIODE 0
32 *4436:X 0.000404245
33 *373:359 0.000519586
34 *373:355 0.000980535
35 *373:343 0.00114918
36 *373:276 0.000569071
37 *373:274 0.000473654
38 *373:272 0.000272882
39 *373:270 0.00030965
40 *373:257 0.000712474
41 *373:244 0.000681367
42 *373:231 0.000336374
43 *373:222 0.00038466
44 *373:216 0.00126609
45 *373:192 0.000212569
46 *373:179 0.000749204
47 *373:173 0.00162337
48 *373:164 0.000322634
49 *373:155 0.000229897
50 *373:145 0.00147306
51 *373:132 0.00097747
52 *373:74 0.000400654
53 *373:72 0.000559653
54 *373:70 0.000110183
55 *373:68 6.65658e-05
56 *373:66 0.000117023
57 *373:64 0.000537032
58 *373:60 0.0013002
59 *373:52 0.00103511
60 *373:48 0.00163421
61 *373:27 0.00110211
62 *373:18 0.000691218
63 *373:12 0.00117295
64 *530:DIODE *488:56 5.29672e-05
65 *4151:A1 *4151:B2 9.75779e-05
66 *4205:B1 *486:14 0.000124483
67 *373:12 *478:39 1.80023e-05
68 *373:12 *497:10 0.000159661
69 *373:12 *498:8 5.80963e-05
70 *373:18 *478:39 6.7177e-06
71 *373:18 *514:20 0.00010018
72 *373:18 *515:10 0
73 *373:60 *501:8 0.000116314
74 *373:60 *514:8 9.84794e-05
75 *373:64 *4284:A1 5.50106e-05
76 *373:145 *4284:A1 1.61361e-05
77 *373:155 *4206:A 1.21972e-05
78 *373:155 *4206:B 6.48142e-05
79 *373:192 *455:14 0
80 *373:192 *486:14 1.79749e-05
81 *373:216 *4373:D 0.000189681
82 *373:216 *4378:D 0.000104433
83 *373:216 *460:109 0
84 *373:231 *482:10 0.000110913
85 *373:257 *4136:A 2.32101e-05
86 *373:257 *460:25 2.65002e-05
87 *373:257 *460:42 3.81554e-05
88 *373:257 *488:20 0.000194309
89 *373:270 *460:42 3.66893e-05
90 *373:270 *488:66 0.000188926
91 *373:343 *491:12 5.27225e-05
92 *373:343 *491:24 0.000228205
93 *373:343 *502:10 0.00013185
94 *373:355 *484:10 0.000117254
95 *373:359 *4200:A 5.50049e-05
96 *567:DIODE *373:257 6.4393e-05
97 *4099:A *530:DIODE 5.67058e-05
98 *4099:A *373:272 4.34876e-05
99 *4099:A *373:274 6.69016e-05
100 *4141:A *373:274 1.57571e-05
101 *4141:A *373:276 7.05498e-05
102 *4145:A2 *4145:A1 5.3304e-05
103 *4145:A2 *373:257 0.000633889
104 *4156:C1 *373:18 0.000271167
105 *4167:A2 *373:155 0
106 *4173:A1 *373:48 0.000144494
107 *4173:S *373:48 0.000229793
108 *4181:A2 *551:DIODE 3.7122e-06
109 *4181:A2 *373:355 5.61255e-06
110 *4187:C1 *373:60 9.90162e-05
111 *4187:C1 *373:64 3.22879e-05
112 *4201:A2 *4201:B1 1.14154e-05
113 *4201:C1 *4201:B1 0
114 *4201:C1 *373:359 9.83336e-05
115 *4203:C1 *4203:B1 5.67058e-05
116 *4205:A2 *373:164 0.00027523
117 *4205:A2 *373:173 1.05441e-05
118 *4352:CLK *373:48 5.3304e-05
119 *4352:D *373:48 1.64354e-05
120 *4373:CLK *373:216 0.000395545
121 *4375:CLK *529:DIODE 1.94812e-05
122 *4380:CLK *4145:A1 2.4754e-05
123 *4447:A *373:48 6.89706e-05
124 *15:10 *373:18 0.000159568
125 *27:8 *373:12 1.80023e-05
126 *35:10 *551:DIODE 2.30292e-05
127 *46:8 *373:164 0
128 *97:45 *4203:B1 2.77232e-05
129 *97:45 *373:173 1.20966e-05
130 *97:45 *373:216 0.000146848
131 *97:62 *4203:B1 8.38685e-05
132 *97:62 *373:355 1.32939e-05
133 *97:62 *373:359 9.16335e-05
134 *97:77 *373:343 1.14452e-05
135 *97:77 *373:355 0.00040335
136 *99:8 *373:270 4.08537e-05
137 *100:57 *373:155 0.000218023
138 *100:66 *373:155 5.50106e-05
139 *100:79 *373:132 1.22803e-05
140 *100:79 *373:145 0.000652065
141 *100:79 *373:155 0.000143655
142 *100:90 *4189:C1 2.64616e-05
143 *100:90 *373:70 6.25829e-05
144 *100:90 *373:72 0.000136486
145 *100:90 *373:74 5.01986e-05
146 *100:106 *373:74 0.000171906
147 *100:291 *373:155 2.55642e-05
148 *100:374 *373:173 0
149 *130:29 *549:DIODE 0.000123934
150 *131:14 *373:257 5.3304e-05
151 *133:38 *373:66 5.561e-05
152 *133:38 *373:132 3.82456e-05
153 *133:38 *373:145 3.31127e-05
154 *133:93 *373:48 0.00039331
155 *134:64 *373:257 0.000393293
156 *134:107 *373:12 0.000248649
157 *134:111 *373:12 5.50106e-05
158 *138:16 *4152:A2 0.000111602
159 *138:16 *373:276 3.52383e-05
160 *139:10 *373:274 0.00010018
161 *140:38 *373:222 4.26853e-05
162 *140:51 *373:222 6.28695e-05
163 *140:51 *373:231 0.000101445
164 *140:51 *373:244 1.94685e-05
165 *140:209 *4152:A2 1.06415e-05
166 *140:209 *373:244 3.47781e-05
167 *142:28 *373:48 0
168 *142:28 *373:343 0
169 *142:69 *535:DIODE 2.64616e-05
170 *142:69 *4151:A1 0.000112255
171 *142:69 *373:66 0.0002129
172 *142:69 *373:68 7.70737e-05
173 *142:69 *373:70 8.02348e-05
174 *142:69 *373:72 0.000129513
175 *142:69 *373:74 0.000637751
176 *142:69 *373:132 4.87235e-05
177 *142:119 *373:343 0
178 *143:31 *373:60 2.97072e-05
179 *143:80 *373:64 4.94192e-05
180 *143:103 *373:66 3.74442e-05
181 *143:103 *373:68 2.79004e-05
182 *143:103 *373:70 9.21347e-06
183 *144:6 *549:DIODE 1.5769e-05
184 *144:10 *4151:A1 3.82956e-05
185 *144:10 *373:74 8.77369e-05
186 *144:18 *4151:A1 3.04991e-05
187 *144:122 *549:DIODE 9.5877e-05
188 *146:20 *373:60 0.000140763
189 *151:12 *373:270 3.95159e-06
190 *153:21 *373:60 0
191 *153:30 *373:52 0.000221992
192 *155:10 *373:60 4.6318e-06
193 *156:10 *373:48 0.000444614
194 *160:8 *373:60 0.000140958
195 *168:14 *373:64 0.000100733
196 *175:10 *4205:B1 0
197 *176:10 *373:155 0.000139352
198 *176:10 *373:164 0.000289696
199 *180:10 *373:216 0.00014196
200 *259:160 *373:257 0.000201454
201 *263:18 *373:222 8.23009e-05
202 *263:18 *373:231 2.19539e-05
203 *267:14 *373:343 0
204 *267:14 *373:355 3.66996e-05
205 *289:10 *373:257 6.93553e-05
206 *290:29 *373:231 7.81176e-05
207 *290:29 *373:244 4.96264e-05
208 *290:37 *373:222 0
209 *307:23 *4189:C1 5.3304e-05
210 *307:23 *373:145 0
211 *307:34 *553:DIODE 0.000170394
212 *307:34 *554:DIODE 5.50049e-05
213 *317:8 *373:74 0.00024897
214 *328:10 *373:48 5.28836e-05
215 *331:25 *373:343 8.62783e-05
216 *339:16 *373:12 0
217 *339:16 *373:18 0
218 *350:14 *4151:A1 0
219 *356:18 *532:DIODE 9.67842e-05
220 *362:6 *373:27 5.50049e-05
221 *362:10 *373:18 6.32688e-05
222 *362:94 *373:48 0.000101987
223 *362:107 *373:48 0.000212621
224 *362:117 *373:60 0.000590669
225 *362:137 *373:48 0.000139657
226 *362:137 *373:343 0.000248754
227 *362:145 *551:DIODE 2.94414e-05
228 *362:157 *551:DIODE 9.84851e-05
229 *363:12 *373:48 0.000310641
*RES
1 *4436:X *373:12 47.0521 
2 *373:12 *373:18 28.2364 
3 *373:18 *572:DIODE 23 
4 *373:12 *373:27 16.5743 
5 *373:27 *4435:A 23 
6 *373:27 *373:48 39.7536 
7 *373:48 *373:52 17.5271 
8 *373:52 *373:60 45.8464 
9 *373:60 *373:64 20.8621 
10 *373:64 *373:66 2.96214 
11 *373:66 *373:68 1.20143 
12 *373:68 *373:70 1.20143 
13 *373:70 *373:72 1.90571 
14 *373:72 *373:74 8.59643 
15 *373:74 *4151:A1 41.4179 
16 *373:74 *535:DIODE 38.6214 
17 *373:72 *549:DIODE 42.4329 
18 *373:70 *4189:C1 38.6214 
19 *373:68 *550:DIODE 38 
20 *373:66 *4190:B 38 
21 *373:64 *373:132 1.20143 
22 *373:132 *4284:A2 38 
23 *373:132 *373:145 29.8107 
24 *373:145 *373:155 36.3386 
25 *373:155 *4100:A 23 
26 *373:145 *373:164 22.8921 
27 *373:164 *4207:B1 38 
28 *373:164 *373:173 0.321071 
29 *373:173 *373:179 17.1723 
30 *373:179 *4205:B1 41.4904 
31 *373:179 *373:192 15.6732 
32 *373:192 *554:DIODE 23.6214 
33 *373:192 *553:DIODE 25.0507 
34 *373:173 *373:216 33.1146 
35 *373:216 *373:222 19.64 
36 *373:222 *4241:C1 38 
37 *373:222 *373:231 4.72286 
38 *373:231 *532:DIODE 39.0979 
39 *373:231 *373:244 16.5536 
40 *373:244 *4145:A1 24.0979 
41 *373:244 *373:257 30.4321 
42 *373:257 *529:DIODE 38.6214 
43 *373:257 *373:270 17.9621 
44 *373:270 *373:272 1.09786 
45 *373:272 *373:274 3.00357 
46 *373:274 *373:276 3.48 
47 *373:276 *4152:A2 28.4479 
48 *373:276 *536:DIODE 23 
49 *373:274 *4143:A2 23.8493 
50 *373:272 *4142:B 23 
51 *373:270 *530:DIODE 25.5479 
52 *373:216 *556:DIODE 23 
53 *373:145 *523:DIODE 23 
54 *373:60 *559:DIODE 23 
55 *373:52 *573:DIODE 23 
56 *373:48 *373:343 25.4193 
57 *373:343 *373:355 40.9164 
58 *373:355 *373:359 6.35929 
59 *373:359 *552:DIODE 23 
60 *373:359 *4203:B1 26.045 
61 *373:355 *4201:B1 23.4971 
62 *373:343 *551:DIODE 25.5271 
*END

*D_NET *374 0.000379939
*CONN
*I *4147:A3 I *D sky130_fd_sc_hd__a31o_1
*I *4457:X O *D sky130_fd_sc_hd__dlygate4sd3_1
*CAP
1 *4147:A3 4.54737e-05
2 *4457:X 4.54737e-05
3 *362:47 *4147:A3 0.000101925
4 *367:6 *4147:A3 0.000187067
*RES
1 *4457:X *4147:A3 48.0507 
*END

*D_NET *375 0.00112755
*CONN
*I *4342:D I *D sky130_fd_sc_hd__dfxtp_1
*I *4458:X O *D sky130_fd_sc_hd__dlygate4sd3_1
*CAP
1 *4342:D 5.29783e-05
2 *4458:X 0.00020376
3 *375:10 0.000256738
4 *4342:D *514:20 8.68427e-05
5 *375:10 *429:14 0.000185368
6 *226:57 *375:10 0.000167443
7 *265:10 *375:10 3.47781e-05
8 *265:12 *375:10 0.000139647
*RES
1 *4458:X *375:10 42.3086 
2 *375:10 *4342:D 38.9943 
*END

*D_NET *376 0.00125088
*CONN
*I *4266:A1 I *D sky130_fd_sc_hd__o21ai_1
*I *4265:A I *D sky130_fd_sc_hd__and4_1
*I *4459:X O *D sky130_fd_sc_hd__dlygate4sd3_1
*CAP
1 *4266:A1 0
2 *4265:A 0
3 *4459:X 0.000100322
4 *376:19 0.000169725
5 *376:6 0.000270047
6 *376:19 *4265:B 0
7 *4107:D_N *376:6 5.67058e-05
8 *4107:D_N *376:19 0.000141954
9 *4265:D *376:6 0.000141954
10 *140:100 *376:19 0
11 *213:8 *376:6 3.22879e-05
12 *213:49 *376:6 6.9805e-05
13 *283:58 *376:6 0.000139352
14 *283:58 *376:19 0.000128723
*RES
1 *4459:X *376:6 26.48 
2 *376:6 *4265:A 23 
3 *376:6 *376:19 33.8321 
4 *376:19 *4266:A1 23 
*END

*D_NET *377 0.000863477
*CONN
*I *4267:B I *D sky130_fd_sc_hd__nor2_1
*I *4461:X O *D sky130_fd_sc_hd__dlygate4sd3_1
*CAP
1 *4267:B 8.61415e-05
2 *4461:X 0.000252173
3 *377:8 0.000338314
4 *377:8 *411:10 8.18846e-05
5 *4263:B1 *377:8 5.758e-05
6 *4267:A *377:8 0
7 *68:10 *4267:B 7.53384e-06
8 *68:10 *377:8 3.98496e-05
*RES
1 *4461:X *377:8 42.7229 
2 *377:8 *4267:B 39.5743 
*END

*D_NET *378 0.000547552
*CONN
*I *4387:D I *D sky130_fd_sc_hd__dfxtp_1
*I *4462:X O *D sky130_fd_sc_hd__dlygate4sd3_1
*CAP
1 *4387:D 0.000147547
2 *4462:X 0.000126229
3 *378:8 0.000273776
4 *4267:A *378:8 0
*RES
1 *4462:X *378:8 40.2579 
2 *378:8 *4387:D 40.5737 
*END

*D_NET *379 0.00500223
*CONN
*I *4232:B I *D sky130_fd_sc_hd__and4_1
*I *4231:A1 I *D sky130_fd_sc_hd__a31o_1
*I *4229:A I *D sky130_fd_sc_hd__nand2_1
*I *4228:A I *D sky130_fd_sc_hd__or2_1
*I *4463:X O *D sky130_fd_sc_hd__dlygate4sd3_1
*CAP
1 *4232:B 0
2 *4231:A1 0
3 *4229:A 6.55072e-05
4 *4228:A 0
5 *4463:X 0.000385319
6 *379:40 0.000797932
7 *379:32 0.00103459
8 *379:12 6.55072e-05
9 *379:10 0.000621979
10 *379:10 *488:134 5.94125e-05
11 *379:32 *488:134 0.000374011
12 *4140:A *379:40 0.000355822
13 *4140:D_N *379:40 4.95081e-05
14 *4559:A *379:40 0
15 *177:46 *4229:A 9.41704e-05
16 *177:46 *379:10 0.00013118
17 *177:59 *4229:A 5.38586e-05
18 *177:59 *379:10 0.000121186
19 *177:72 *379:10 0.000148524
20 *190:10 *4229:A 0.000132332
21 *268:23 *379:40 9.69279e-05
22 *269:10 *379:32 0
23 *288:10 *379:40 0.000270682
24 *365:14 *379:40 0.000143772
*RES
1 *4463:X *379:10 44.235 
2 *379:10 *379:12 15 
3 *379:12 *4228:A 23 
4 *379:12 *4229:A 24.8332 
5 *379:10 *379:32 20.075 
6 *379:32 *379:40 43.0086 
7 *379:40 *4231:A1 23 
8 *379:32 *4232:B 23 
*END

*D_NET *380 0.0022282
*CONN
*I *4235:A I *D sky130_fd_sc_hd__nand2_1
*I *4234:A I *D sky130_fd_sc_hd__or2_1
*I *4464:X O *D sky130_fd_sc_hd__dlygate4sd3_1
*CAP
1 *4235:A 0
2 *4234:A 0.00029572
3 *4464:X 0.000341269
4 *380:10 0.000636989
5 *4236:A *4234:A 2.32101e-05
6 *4236:C *4234:A 0.000116938
7 *4238:A *4234:A 0.000313249
8 *4238:B *4234:A 0.000228903
9 *4464:A *380:10 0
10 *57:8 *4234:A 5.34939e-05
11 *57:8 *380:10 0
12 *192:16 *4234:A 0.000118587
13 *192:57 *4234:A 9.33529e-06
14 *192:57 *380:10 4.21594e-06
15 *194:8 *4234:A 8.62876e-05
16 *270:10 *380:10 0
*RES
1 *4464:X *380:10 43.6964 
2 *380:10 *4234:A 47.715 
3 *380:10 *4235:A 38 
*END

*D_NET *381 0.0023213
*CONN
*I *4256:A I *D sky130_fd_sc_hd__and4_1
*I *4257:A1 I *D sky130_fd_sc_hd__o21ai_1
*I *4465:X O *D sky130_fd_sc_hd__dlygate4sd3_1
*CAP
1 *4256:A 0
2 *4257:A1 0
3 *4465:X 0
4 *381:27 0.000487454
5 *381:14 0.00025038
6 *381:4 0.000737834
7 *4253:B *381:27 1.01436e-05
8 *4465:A *381:27 7.59964e-05
9 *105:14 *381:14 0
10 *105:14 *381:27 0.000318411
11 *205:14 *381:14 1.76557e-05
12 *205:14 *381:27 0.000320642
13 *208:8 *381:14 0
14 *259:133 *381:14 4.07902e-05
15 *282:6 *381:27 8.85299e-06
16 *282:19 *381:14 5.31444e-05
*RES
1 *4465:X *381:4 23 
2 *381:4 *381:14 34.9093 
3 *381:14 *4257:A1 23 
4 *381:4 *381:27 39.28 
5 *381:27 *4256:A 23 
*END

*D_NET *382 0.000715875
*CONN
*I *4258:B I *D sky130_fd_sc_hd__nor2_1
*I *4466:X O *D sky130_fd_sc_hd__dlygate4sd3_1
*CAP
1 *4258:B 0
2 *4466:X 0.000172677
3 *382:6 0.000172677
4 *382:6 *434:20 5.29672e-05
5 *4467:A *382:6 0.000317553
*RES
1 *4466:X *382:6 27.9093 
2 *382:6 *4258:B 23 
*END

*D_NET *383 0.00030462
*CONN
*I *4384:D I *D sky130_fd_sc_hd__dfxtp_1
*I *4467:X O *D sky130_fd_sc_hd__dlygate4sd3_1
*CAP
1 *4384:D 1.58638e-05
2 *4467:X 0.000108893
3 *383:8 0.000124757
4 *207:19 *383:8 5.51058e-05
5 *208:8 *383:8 0
*RES
1 *4467:X *383:8 40.2579 
2 *383:8 *4384:D 38.1916 
*END

*D_NET *384 0.000828981
*CONN
*I *4282:B I *D sky130_fd_sc_hd__or2_1
*I *4437:X O *D sky130_fd_sc_hd__dlygate4sd3_1
*CAP
1 *4282:B 3.89939e-05
2 *4437:X 0.000135929
3 *384:10 0.000174923
4 *384:10 *474:10 3.70187e-05
5 *4329:A *4282:B 1.21972e-05
6 *4546:A *4282:B 6.17437e-06
7 *74:10 *4282:B 1.14762e-05
8 *100:20 *4282:B 9.75779e-05
9 *152:8 *384:10 5.50106e-05
10 *152:16 *384:10 0.000191157
11 *252:12 *384:10 2.3529e-05
12 *252:33 *384:10 4.49946e-05
*RES
1 *4437:X *384:10 41.2314 
2 *384:10 *4282:B 39.0979 
*END

*D_NET *385 0.00268463
*CONN
*I *4254:A1 I *D sky130_fd_sc_hd__o21ai_1
*I *4256:B I *D sky130_fd_sc_hd__and4_1
*I *4253:A I *D sky130_fd_sc_hd__and3_1
*I *4468:X O *D sky130_fd_sc_hd__dlygate4sd3_1
*CAP
1 *4254:A1 0.000340153
2 *4256:B 0.000264043
3 *4253:A 0
4 *4468:X 0
5 *385:12 0.000639745
6 *385:4 0.000715855
7 *564:DIODE *4254:A1 0.000256877
8 *4253:C *4256:B 8.33635e-05
9 *4255:A *4256:B 2.93845e-05
10 *4256:C *4256:B 5.50049e-05
11 *4256:D *4256:B 3.88766e-05
12 *4383:CLK *385:12 0
13 *4469:A *4254:A1 5.50106e-05
14 *134:22 *385:12 0
15 *200:37 *4256:B 1.84234e-05
16 *259:116 *4254:A1 9.0102e-05
17 *281:10 *385:12 9.35752e-05
18 *281:23 *385:12 4.21594e-06
*RES
1 *4468:X *385:4 23 
2 *385:4 *385:12 36.6493 
3 *385:12 *4253:A 23 
4 *385:12 *4256:B 26.9771 
5 *385:4 *4254:A1 29.9807 
*END

*D_NET *386 0.000881636
*CONN
*I *4255:B I *D sky130_fd_sc_hd__nor2_1
*I *4469:X O *D sky130_fd_sc_hd__dlygate4sd3_1
*CAP
1 *4255:B 0
2 *4469:X 0.000239572
3 *386:10 0.000239572
4 *564:DIODE *386:10 9.84794e-05
5 *4252:A_N *386:10 0
6 *63:8 *386:10 9.32509e-05
7 *64:8 *386:10 0.000141879
8 *200:37 *386:10 6.88819e-05
*RES
1 *4469:X *386:10 43.8207 
2 *386:10 *4255:B 38 
*END

*D_NET *387 0.000224649
*CONN
*I *4383:D I *D sky130_fd_sc_hd__dfxtp_1
*I *4470:X O *D sky130_fd_sc_hd__dlygate4sd3_1
*CAP
1 *4383:D 8.59533e-05
2 *4470:X 8.59533e-05
3 *4383:D *434:20 5.27422e-05
*RES
1 *4470:X *4383:D 47.8902 
*END

*D_NET *388 0.00373214
*CONN
*I *4305:A I *D sky130_fd_sc_hd__and2_1
*I *4127:A I *D sky130_fd_sc_hd__or4b_1
*I *4304:B1 I *D sky130_fd_sc_hd__a21o_1
*I *4472:X O *D sky130_fd_sc_hd__dlygate4sd3_1
*CAP
1 *4305:A 0
2 *4127:A 0
3 *4304:B1 0.00027608
4 *4472:X 0.000322717
5 *388:36 0.000154017
6 *388:23 0.000370851
7 *388:8 0.000815632
8 *4304:B1 *389:10 0.000111138
9 *388:23 *407:8 0.000110922
10 *388:36 *4305:B 0.000187996
11 *388:36 *427:22 5.50106e-05
12 *4127:D_N *388:23 9.5877e-05
13 *4127:D_N *388:36 0.000139346
14 *4309:C1 *4304:B1 0.000244507
15 *83:10 *4304:B1 0
16 *144:18 *388:36 6.46138e-05
17 *144:24 *388:23 0.000262169
18 *144:26 *4304:B1 0.000283651
19 *144:26 *388:23 3.47781e-05
20 *144:60 *388:8 5.3304e-05
21 *234:24 *388:8 9.41047e-05
22 *238:10 *388:23 3.74338e-05
23 *264:41 *4304:B1 1.7992e-05
24 *353:10 *388:23 0
25 *353:29 *4304:B1 0
26 *354:10 *4304:B1 0
*RES
1 *4472:X *388:8 42.4329 
2 *388:8 *4304:B1 45.54 
3 *388:8 *388:23 20.1164 
4 *388:23 *4127:A 23 
5 *388:23 *388:36 34.1843 
6 *388:36 *4305:A 23 
*END

*D_NET *389 0.000614968
*CONN
*I *4307:C I *D sky130_fd_sc_hd__and3b_1
*I *4473:X O *D sky130_fd_sc_hd__dlygate4sd3_1
*CAP
1 *4307:C 0
2 *4473:X 0.000169261
3 *389:10 0.000169261
4 *4304:B1 *389:10 0.000111138
5 *264:41 *389:10 0.000165308
6 *354:10 *389:10 0
*RES
1 *4473:X *389:10 42.06 
2 *389:10 *4307:C 38 
*END

*D_NET *390 0.000411773
*CONN
*I *4406:D I *D sky130_fd_sc_hd__dfxtp_1
*I *4474:X O *D sky130_fd_sc_hd__dlygate4sd3_1
*CAP
1 *4406:D 7.17495e-06
2 *4474:X 0.000153923
3 *390:10 0.000161098
4 *4406:D *4303:A1 1.64354e-05
5 *4304:A2 *390:10 5.67058e-05
6 *4406:CLK *4406:D 1.64354e-05
7 *83:10 *390:10 0
*RES
1 *4474:X *390:10 40.175 
2 *390:10 *4406:D 38.1916 
*END

*D_NET *391 0.00165896
*CONN
*I *4271:A I *D sky130_fd_sc_hd__and3_1
*I *4272:A1 I *D sky130_fd_sc_hd__o21ai_1
*I *4274:B I *D sky130_fd_sc_hd__and4_1
*I *4475:X O *D sky130_fd_sc_hd__dlygate4sd3_1
*CAP
1 *4271:A 0
2 *4272:A1 4.4529e-05
3 *4274:B 0
4 *4475:X 6.66798e-05
5 *391:25 0.000188107
6 *391:14 0.000220928
7 *391:6 0.000431186
8 *4272:A2 *4272:A1 5.67058e-05
9 *4274:C *391:14 0.000166522
10 *4274:D *391:25 0.000219873
11 *4275:A2 *391:14 0
12 *213:49 *391:25 3.70094e-05
13 *218:8 *391:25 0
14 *274:8 *391:6 8.60475e-05
15 *274:8 *391:14 0.000136738
16 *275:10 *391:25 0
17 *369:10 *391:14 4.6318e-06
*RES
1 *4475:X *391:6 24.0979 
2 *391:6 *391:14 33.8321 
3 *391:14 *4274:B 23 
4 *391:6 *391:25 33.3143 
5 *391:25 *4272:A1 24.1186 
6 *391:25 *4271:A 23 
*END

*D_NET *392 9.27681e-05
*CONN
*I *4273:B I *D sky130_fd_sc_hd__nor2_1
*I *4476:X O *D sky130_fd_sc_hd__dlygate4sd3_1
*CAP
1 *4273:B 1.55527e-05
2 *4476:X 1.55527e-05
3 *70:10 *4273:B 2.93747e-05
4 *274:8 *4273:B 3.22879e-05
*RES
1 *4476:X *4273:B 46.6214 
*END

*D_NET *393 0.000789018
*CONN
*I *4389:D I *D sky130_fd_sc_hd__dfxtp_1
*I *4477:X O *D sky130_fd_sc_hd__dlygate4sd3_1
*CAP
1 *4389:D 0.000296915
2 *4477:X 7.97676e-05
3 *393:8 0.000376682
4 *217:10 *393:8 3.56537e-05
*RES
1 *4477:X *393:8 39.5536 
2 *393:8 *4389:D 42.9559 
*END

*D_NET *394 0.00601448
*CONN
*I *4132:A2 I *D sky130_fd_sc_hd__a31o_1
*I *4285:D1 I *D sky130_fd_sc_hd__a2111o_1
*I *4101:A I *D sky130_fd_sc_hd__inv_2
*I *4300:B I *D sky130_fd_sc_hd__or3_1
*I *4299:A1 I *D sky130_fd_sc_hd__o31a_2
*I *4151:B2 I *D sky130_fd_sc_hd__a22o_1
*I *4478:X O *D sky130_fd_sc_hd__dlygate4sd3_1
*CAP
1 *4132:A2 7.45377e-05
2 *4285:D1 0.000375151
3 *4101:A 0.000246029
4 *4300:B 0.000246753
5 *4299:A1 0
6 *4151:B2 0.000456533
7 *4478:X 0
8 *394:43 0.000693065
9 *394:32 0.000318637
10 *394:30 0.000654103
11 *394:21 0.00013855
12 *394:6 0.000781226
13 *394:4 0.000765709
14 *4101:A *424:8 4.9171e-05
15 *4101:A *513:8 0.000135547
16 *4285:D1 *4340:D 2.12084e-05
17 *4300:B *413:19 6.16039e-05
18 *394:43 *424:8 3.59619e-05
19 *4132:A3 *4132:A2 2.30292e-05
20 *4132:A3 *4300:B 0
21 *4132:B1 *4132:A2 2.02517e-05
22 *4151:A1 *4151:B2 9.75779e-05
23 *4285:A2 *4101:A 0
24 *4285:A2 *4300:B 0
25 *4285:A2 *394:43 0
26 *4478:A *394:30 9.84851e-05
27 *4479:A *4151:B2 1.73399e-05
28 *4508:A *394:30 0.000317553
29 *100:106 *4101:A 1.24376e-05
30 *100:115 *4101:A 2.02872e-05
31 *142:69 *4151:B2 3.17516e-05
32 *259:42 *4285:D1 2.12414e-05
33 *264:10 *394:21 0
34 *265:51 *4285:D1 0.000267173
35 *265:57 *4101:A 0
36 *265:57 *4285:D1 1.76557e-05
37 *335:10 *4101:A 1.59094e-05
38 *336:10 *4101:A 0
39 *360:20 *394:21 0
*RES
1 *4478:X *394:4 23 
2 *394:4 *394:6 2.52714 
3 *394:6 *4151:B2 29.235 
4 *394:6 *394:21 31.9057 
5 *394:21 *4299:A1 23 
6 *394:4 *394:30 11.2271 
7 *394:30 *394:32 15 
8 *394:32 *4300:B 42.3707 
9 *394:32 *394:43 1.3775 
10 *394:43 *4101:A 42.4639 
11 *394:43 *4285:D1 44.4939 
12 *394:30 *4132:A2 24.595 
*END

*D_NET *395 0.00050057
*CONN
*I *4393:D I *D sky130_fd_sc_hd__dfxtp_1
*I *4519:X O *D sky130_fd_sc_hd__dlygate4sd3_1
*CAP
1 *4393:D 0.000158475
2 *4519:X 9.18104e-05
3 *395:8 0.000250285
4 *261:84 *395:8 0
*RES
1 *4519:X *395:8 39.5536 
2 *395:8 *4393:D 40.5737 
*END

*D_NET *396 0.000912249
*CONN
*I *4341:D I *D sky130_fd_sc_hd__dfxtp_1
*I *4479:X O *D sky130_fd_sc_hd__dlygate4sd3_1
*CAP
1 *4341:D 0.000149138
2 *4479:X 0.000266136
3 *396:8 0.000415274
4 *100:106 *4341:D 8.17019e-05
5 *264:10 *396:8 0
6 *264:82 *396:8 0
7 *264:102 *396:8 0
8 *360:20 *396:8 0
*RES
1 *4479:X *396:8 42.3707 
2 *396:8 *4341:D 41.0502 
*END

*D_NET *397 0.000366567
*CONN
*I *4337:A1 I *D sky130_fd_sc_hd__o221a_1
*I *4480:X O *D sky130_fd_sc_hd__dlygate4sd3_1
*CAP
1 *4337:A1 4.35914e-05
2 *4480:X 4.35914e-05
3 *327:18 *4337:A1 0.000139692
4 *351:22 *4337:A1 0.000139692
*RES
1 *4480:X *4337:A1 47.5743 
*END

*D_NET *398 0.000492223
*CONN
*I *4338:C I *D sky130_fd_sc_hd__or3_1
*I *4481:X O *D sky130_fd_sc_hd__dlygate4sd3_1
*CAP
1 *4338:C 6.85016e-05
2 *4481:X 6.85016e-05
3 *4338:A *4338:C 0.00017761
4 *4338:B *4338:C 0.00017761
*RES
1 *4481:X *4338:C 48.0507 
*END

*D_NET *399 0.00413789
*CONN
*I *4418:D I *D sky130_fd_sc_hd__dfxtp_1
*I *4483:X O *D sky130_fd_sc_hd__dlygate4sd3_1
*CAP
1 *4418:D 0
2 *4483:X 0.000753128
3 *399:14 0.000730259
4 *399:8 0.00148339
5 *399:14 *495:33 6.08751e-05
6 *538:DIODE *399:14 5.50049e-05
7 *15:10 *399:14 3.28609e-05
8 *95:14 *399:8 9.65869e-05
9 *101:10 *399:8 0.000137368
10 *134:125 *399:14 0.000194327
11 *136:10 *399:14 0.000194309
12 *265:10 *399:8 6.99242e-05
13 *265:89 *399:8 5.17689e-05
14 *335:55 *399:14 9.45388e-05
15 *351:8 *399:14 9.45591e-05
16 *351:22 *399:14 8.899e-05
*RES
1 *4483:X *399:8 48.15 
2 *399:8 *399:14 29.6709 
3 *399:14 *4418:D 23 
*END

*D_NET *400 0.00243184
*CONN
*I *4280:A I *D sky130_fd_sc_hd__nand3_1
*I *4279:B1 I *D sky130_fd_sc_hd__a21o_1
*I *4484:X O *D sky130_fd_sc_hd__dlygate4sd3_1
*CAP
1 *4280:A 0
2 *4279:B1 0
3 *4484:X 0.000227906
4 *400:27 0.000379403
5 *400:14 0.000366654
6 *400:6 0.000973962
7 *400:27 *402:8 0
8 *4422:A *400:6 5.67058e-05
9 *4598:A *400:14 4.23714e-05
10 *222:10 *400:14 8.62876e-05
11 *222:10 *400:27 0
12 *223:8 *400:27 0.000138718
13 *262:73 *400:14 0.000159829
14 *276:33 *400:27 0
15 *277:14 *400:27 0
*RES
1 *4484:X *400:6 26.0036 
2 *400:6 *400:14 35.8621 
3 *400:14 *4279:B1 23 
4 *400:6 *400:27 37.105 
5 *400:27 *4280:A 23 
*END

*D_NET *401 0.000217081
*CONN
*I *4281:C I *D sky130_fd_sc_hd__and3_1
*I *4485:X O *D sky130_fd_sc_hd__dlygate4sd3_1
*CAP
1 *4281:C 3.27595e-05
2 *4485:X 3.27595e-05
3 *73:8 *4281:C 2.30292e-05
4 *140:72 *4281:C 0.000128533
*RES
1 *4485:X *4281:C 47.4086 
*END

*D_NET *402 0.000863349
*CONN
*I *4392:D I *D sky130_fd_sc_hd__dfxtp_1
*I *4486:X O *D sky130_fd_sc_hd__dlygate4sd3_1
*CAP
1 *4392:D 0.000186163
2 *4486:X 0.000245512
3 *402:8 0.000431674
4 *262:73 *402:8 0
5 *276:23 *402:8 0
6 *277:8 *402:8 0
7 *277:14 *402:8 0
8 *400:27 *402:8 0
*RES
1 *4486:X *402:8 42.3707 
2 *402:8 *4392:D 41.0502 
*END

*D_NET *403 0.00383017
*CONN
*I *4333:A I *D sky130_fd_sc_hd__nand3_1
*I *4332:B1 I *D sky130_fd_sc_hd__a21o_1
*I *4130:D_N I *D sky130_fd_sc_hd__or4bb_1
*I *4487:X O *D sky130_fd_sc_hd__dlygate4sd3_1
*CAP
1 *4333:A 0.000393799
2 *4332:B1 0.000321162
3 *4130:D_N 0.000132311
4 *4487:X 6.08067e-05
5 *403:10 0.000513605
6 *403:8 0.000514738
7 *4130:D_N *405:8 1.01436e-05
8 *4130:D_N *473:34 0.000243578
9 *4332:B1 *4332:A1 0.000482846
10 *4333:A *449:10 0
11 *4333:A *471:51 0
12 *403:10 *405:8 0.000114092
13 *403:10 *473:34 0.000129513
14 *4332:A2 *4332:B1 9.72057e-06
15 *92:10 *4333:A 9.63918e-05
16 *255:10 *4332:B1 0.000230604
17 *256:10 *4333:A 0.000117992
18 *256:16 *4130:D_N 7.76364e-06
19 *256:16 *4333:A 6.88819e-05
20 *256:16 *403:10 9.21347e-06
21 *257:10 *4130:D_N 8.92738e-05
22 *257:10 *4333:A 0.000122407
23 *257:10 *403:10 2.70366e-05
24 *259:92 *403:8 9.67842e-05
25 *316:25 *4332:B1 3.75094e-05
*RES
1 *4487:X *403:8 39.0979 
2 *403:8 *403:10 2.25786 
3 *403:10 *4130:D_N 41.6664 
4 *403:10 *4332:B1 45.7886 
5 *403:8 *4333:A 46.9486 
*END

*D_NET *404 0.000681275
*CONN
*I *4334:B I *D sky130_fd_sc_hd__and3_1
*I *4488:X O *D sky130_fd_sc_hd__dlygate4sd3_1
*CAP
1 *4334:B 0
2 *4488:X 0.000313132
3 *404:10 0.000313132
4 *404:10 *473:34 5.50106e-05
5 *93:10 *404:10 0
6 *252:70 *404:10 0
7 *255:10 *404:10 0
8 *316:12 *404:10 0
*RES
1 *4488:X *404:10 42.64 
2 *404:10 *4334:B 38 
*END

*D_NET *405 0.000357183
*CONN
*I *4416:D I *D sky130_fd_sc_hd__dfxtp_1
*I *4489:X O *D sky130_fd_sc_hd__dlygate4sd3_1
*CAP
1 *4416:D 1.12314e-05
2 *4489:X 4.55227e-05
3 *405:8 5.6754e-05
4 *4130:D_N *405:8 1.01436e-05
5 *257:10 *405:8 0.000114092
6 *316:25 *4416:D 5.34647e-06
7 *403:10 *405:8 0.000114092
*RES
1 *4489:X *405:8 39.5536 
2 *405:8 *4416:D 38.1916 
*END

*D_NET *406 0.0014577
*CONN
*I *4164:A1 I *D sky130_fd_sc_hd__a21o_1
*I *4530:X O *D sky130_fd_sc_hd__dlygate4sd3_1
*CAP
1 *4164:A1 0.000211789
2 *4530:X 0.000287491
3 *406:10 0.00049928
4 *4164:A1 *428:10 4.4553e-05
5 *406:10 *4613:A 4.75087e-05
6 *406:10 *417:8 8.4047e-05
7 *4541:A *406:10 9.91798e-05
8 *29:10 *4164:A1 9.75779e-05
9 *29:10 *406:10 8.62783e-05
*RES
1 *4530:X *406:10 42.6814 
2 *406:10 *4164:A1 41.0036 
*END

*D_NET *407 0.003571
*CONN
*I *4310:B1 I *D sky130_fd_sc_hd__a31o_1
*I *4311:A I *D sky130_fd_sc_hd__and4_1
*I *4128:B I *D sky130_fd_sc_hd__nand2_1
*I *4490:X O *D sky130_fd_sc_hd__dlygate4sd3_1
*CAP
1 *4310:B1 4.94671e-05
2 *4311:A 0
3 *4128:B 0
4 *4490:X 6.57141e-05
5 *407:26 0.000624384
6 *407:14 0.000737222
7 *407:12 0.000174531
8 *407:8 7.79401e-05
9 *407:26 *409:8 0.000111852
10 *4306:B *407:26 0.000230604
11 *128:10 *407:26 0.000119957
12 *144:60 *4310:B1 0.00010018
13 *144:60 *407:12 1.76557e-05
14 *144:68 *407:26 0
15 *234:24 *4310:B1 5.90675e-06
16 *234:24 *407:12 5.50049e-05
17 *234:24 *407:14 0.000180224
18 *238:10 *407:8 5.21127e-05
19 *238:14 *4310:B1 5.67058e-05
20 *238:14 *407:14 0.000180218
21 *238:16 *407:14 0.000130423
22 *238:16 *407:26 0.000187129
23 *241:10 *407:14 5.67058e-05
24 *241:10 *407:26 0.00010018
25 *242:10 *407:26 0.00014196
26 *264:49 *407:26 0
27 *353:16 *4310:B1 4.00259e-06
28 *388:23 *407:8 0.000110922
*RES
1 *4490:X *407:8 39.5536 
2 *407:8 *407:12 15.6214 
3 *407:12 *407:14 3.95643 
4 *407:14 *407:26 43.1329 
5 *407:26 *4128:B 23 
6 *407:14 *4311:A 23 
7 *407:12 *4310:B1 24.9471 
*END

*D_NET *408 0.00146368
*CONN
*I *4312:C I *D sky130_fd_sc_hd__and3b_1
*I *4491:X O *D sky130_fd_sc_hd__dlygate4sd3_1
*CAP
1 *4312:C 0
2 *4491:X 0.000582711
3 *408:10 0.000582711
4 *85:10 *408:10 0
5 *144:78 *408:10 0.000298257
*RES
1 *4491:X *408:10 47.4043 
2 *408:10 *4312:C 38 
*END

*D_NET *409 0.000602683
*CONN
*I *4408:D I *D sky130_fd_sc_hd__dfxtp_1
*I *4492:X O *D sky130_fd_sc_hd__dlygate4sd3_1
*CAP
1 *4408:D 0.000171335
2 *4492:X 7.2458e-05
3 *409:8 0.000243793
4 *144:68 *4408:D 3.24476e-06
5 *241:10 *409:8 0
6 *407:26 *409:8 0.000111852
*RES
1 *4492:X *409:8 39.5536 
2 *409:8 *4408:D 40.5737 
*END

*D_NET *410 0.0025462
*CONN
*I *4265:B I *D sky130_fd_sc_hd__and4_1
*I *4262:A I *D sky130_fd_sc_hd__and3_1
*I *4263:A1 I *D sky130_fd_sc_hd__o21ai_1
*I *4494:X O *D sky130_fd_sc_hd__dlygate4sd3_1
*CAP
1 *4265:B 0.000328555
2 *4262:A 0
3 *4263:A1 0
4 *4494:X 0.000123213
5 *410:20 9.13082e-05
6 *410:14 0.000319549
7 *410:8 0.000680008
8 *4107:D_N *4265:B 6.70363e-05
9 *4120:D_N *4265:B 3.26321e-05
10 *4265:D *410:20 1.61305e-05
11 *4496:A *410:14 2.64616e-05
12 *140:100 *4265:B 0
13 *140:108 *4265:B 0
14 *140:108 *410:14 0
15 *207:36 *410:20 6.68587e-05
16 *211:21 *4265:B 0
17 *211:21 *410:8 0.000185434
18 *211:21 *410:14 5.97178e-05
19 *212:10 *410:20 0.000110373
20 *213:49 *4265:B 3.70187e-05
21 *283:23 *410:14 0.000111276
22 *283:23 *410:20 0
23 *283:34 *4265:B 0.000280481
24 *283:34 *410:14 1.01436e-05
25 *376:19 *4265:B 0
*RES
1 *4494:X *410:8 40.0507 
2 *410:8 *410:14 19.0807 
3 *410:14 *410:20 32.2579 
4 *410:20 *4263:A1 23 
5 *410:14 *4262:A 23 
6 *410:8 *4265:B 44.2764 
*END

*D_NET *411 0.00107538
*CONN
*I *4264:B I *D sky130_fd_sc_hd__nor2_1
*I *4495:X O *D sky130_fd_sc_hd__dlygate4sd3_1
*CAP
1 *4264:B 0
2 *4495:X 0.000336238
3 *411:10 0.000336238
4 *4263:B1 *411:10 0.000161814
5 *140:132 *411:10 6.16283e-05
6 *214:8 *411:10 9.75779e-05
7 *377:8 *411:10 8.18846e-05
*RES
1 *4495:X *411:10 43.7379 
2 *411:10 *4264:B 38 
*END

*D_NET *412 0.000286582
*CONN
*I *4386:D I *D sky130_fd_sc_hd__dfxtp_1
*I *4496:X O *D sky130_fd_sc_hd__dlygate4sd3_1
*CAP
1 *4386:D 3.44617e-05
2 *4496:X 7.41498e-05
3 *412:8 0.000108611
4 *140:108 *412:8 0
5 *260:20 *4386:D 1.86404e-05
6 *283:23 *412:8 5.07182e-05
*RES
1 *4496:X *412:8 39.5536 
2 *412:8 *4386:D 38.668 
*END

*D_NET *413 0.00261184
*CONN
*I *4125:C I *D sky130_fd_sc_hd__or4b_1
*I *4289:A I *D sky130_fd_sc_hd__and3_1
*I *4288:B1 I *D sky130_fd_sc_hd__a21o_1
*I *4497:X O *D sky130_fd_sc_hd__dlygate4sd3_1
*CAP
1 *4125:C 0.000396461
2 *4289:A 0
3 *4288:B1 0.000215247
4 *4497:X 0
5 *413:19 0.000148545
6 *413:4 0.000760253
7 *4125:C *422:18 2.07484e-05
8 *4132:A3 *413:19 5.55278e-05
9 *4300:B *413:19 6.16039e-05
10 *4499:A *4125:C 4.17736e-05
11 *4499:A *4288:B1 0.000317553
12 *100:135 *4125:C 0.000404441
13 *130:68 *4125:C 2.02872e-05
14 *130:68 *4288:B1 9.90162e-05
15 *130:68 *413:19 7.03869e-05
*RES
1 *4497:X *413:4 23 
2 *413:4 *4288:B1 28.8829 
3 *413:4 *413:19 33.3143 
4 *413:19 *4289:A 23 
5 *413:4 *4125:C 31.7207 
*END

*D_NET *414 0.000183361
*CONN
*I *4290:C I *D sky130_fd_sc_hd__and3b_1
*I *4498:X O *D sky130_fd_sc_hd__dlygate4sd3_1
*CAP
1 *4290:C 8.96576e-05
2 *4498:X 8.96576e-05
3 *4290:B *4290:C 4.04598e-06
*RES
1 *4498:X *4290:C 47.5743 
*END

*D_NET *415 0.00041616
*CONN
*I *4400:D I *D sky130_fd_sc_hd__dfxtp_1
*I *4499:X O *D sky130_fd_sc_hd__dlygate4sd3_1
*CAP
1 *4400:D 4.81776e-05
2 *4499:X 8.3455e-05
3 *415:8 0.000131633
4 *77:8 *415:8 5.21127e-05
5 *227:8 *415:8 0
6 *309:6 *4400:D 0.000100782
*RES
1 *4499:X *415:8 39.5536 
2 *415:8 *4400:D 39.1445 
*END

*D_NET *416 0.00344603
*CONN
*I *4325:A I *D sky130_fd_sc_hd__and3_1
*I *4324:B1 I *D sky130_fd_sc_hd__a21o_1
*I *4129:A I *D sky130_fd_sc_hd__or4_1
*I *4500:X O *D sky130_fd_sc_hd__dlygate4sd3_1
*CAP
1 *4325:A 0.000201299
2 *4324:B1 0
3 *4129:A 0.000407099
4 *4500:X 0
5 *416:23 0.000603039
6 *416:6 0.00101014
7 *416:4 0.000201299
8 *4129:A *4128:A 4.6318e-06
9 *4325:A *4325:B 1.79042e-06
10 *416:23 *4413:D 0.000230548
11 *4324:A2 *416:23 1.32314e-05
12 *4325:C *4325:A 0.000126838
13 *4327:D *4129:A 0
14 *4327:D *416:23 0
15 *4413:CLK *416:23 0.000269775
16 *128:10 *4129:A 0.000228903
17 *144:78 *4129:A 0
18 *144:78 *416:23 0
19 *247:12 *4129:A 2.93747e-05
20 *247:60 *4129:A 0
21 *326:8 *416:23 0.000118058
*RES
1 *4500:X *416:4 23 
2 *416:4 *416:6 15 
3 *416:6 *4129:A 45.4986 
4 *416:6 *416:23 27.5321 
5 *416:23 *4324:B1 23 
6 *416:4 *4325:A 26.0243 
*END

*D_NET *417 0.000956978
*CONN
*I *4348:D I *D sky130_fd_sc_hd__dfxtp_1
*I *4541:X O *D sky130_fd_sc_hd__dlygate4sd3_1
*CAP
1 *4348:D 4.92806e-05
2 *4541:X 0.000285538
3 *417:8 0.000334819
4 *417:8 *489:23 0
5 *6:10 *417:8 4.21594e-06
6 *8:8 *417:8 0
7 *9:10 *417:8 0
8 *28:10 *417:8 0
9 *29:10 *417:8 1.22906e-05
10 *134:95 *417:8 0
11 *150:16 *417:8 8.40494e-05
12 *267:80 *4348:D 0.000102738
13 *406:10 *417:8 8.4047e-05
*RES
1 *4541:X *417:8 43.4271 
2 *417:8 *4348:D 39.1445 
*END

*D_NET *418 0.000809261
*CONN
*I *4413:D I *D sky130_fd_sc_hd__dfxtp_1
*I *4501:X O *D sky130_fd_sc_hd__dlygate4sd3_1
*CAP
1 *4413:D 0.000122377
2 *4501:X 4.89404e-05
3 *418:8 0.000171317
4 *418:8 *458:14 0.000111852
5 *418:8 *458:20 1.01436e-05
6 *4500:A *418:8 0.000114083
7 *416:23 *4413:D 0.000230548
*RES
1 *4501:X *418:8 39.5536 
2 *418:8 *4413:D 40.5737 
*END

*D_NET *419 0.00130801
*CONN
*I *4269:A1 I *D sky130_fd_sc_hd__o21ai_1
*I *4268:A I *D sky130_fd_sc_hd__and2_1
*I *4502:X O *D sky130_fd_sc_hd__dlygate4sd3_1
*CAP
1 *4269:A1 0.000250522
2 *4268:A 0
3 *4502:X 0.000238345
4 *419:12 0.000250522
5 *419:10 0.000238345
6 *4120:D_N *419:10 0
7 *4268:B *4269:A1 0.000272383
8 *4269:B1 *4269:A1 2.18409e-05
9 *4503:A *419:10 6.17437e-06
10 *213:49 *419:10 0
11 *215:8 *419:10 0
12 *286:6 *4269:A1 2.98767e-05
*RES
1 *4502:X *419:10 41.0036 
2 *419:10 *419:12 15 
3 *419:12 *4268:A 23 
4 *419:12 *4269:A1 28.4271 
*END

*D_NET *420 0.000802116
*CONN
*I *4270:B I *D sky130_fd_sc_hd__nor2_1
*I *4503:X O *D sky130_fd_sc_hd__dlygate4sd3_1
*CAP
1 *4270:B 4.70984e-05
2 *4503:X 0.0002917
3 *420:10 0.000338798
4 *4503:A *420:10 3.7122e-06
5 *4505:A *420:10 3.22879e-05
6 *69:8 *420:10 8.85189e-05
7 *215:8 *420:10 0
8 *262:16 *420:10 0
*RES
1 *4503:X *420:10 42.785 
2 *420:10 *4270:B 38.6214 
*END

*D_NET *421 0.000656418
*CONN
*I *4388:D I *D sky130_fd_sc_hd__dfxtp_1
*I *4505:X O *D sky130_fd_sc_hd__dlygate4sd3_1
*CAP
1 *4388:D 0.000155757
2 *4505:X 0.000121086
3 *421:8 0.000276843
4 *4388:CLK *4388:D 0.000102732
5 *216:8 *421:8 0
6 *262:16 *421:8 0
*RES
1 *4505:X *421:8 39.9057 
2 *421:8 *4388:D 41.0502 
*END

*D_NET *422 0.00542299
*CONN
*I *4294:A I *D sky130_fd_sc_hd__or2_1
*I *4295:A I *D sky130_fd_sc_hd__and3_1
*I *4125:A I *D sky130_fd_sc_hd__or4b_1
*I *4506:X O *D sky130_fd_sc_hd__dlygate4sd3_1
*CAP
1 *4294:A 0.000191961
2 *4295:A 0
3 *4125:A 0
4 *4506:X 0
5 *422:31 0.000655579
6 *422:18 0.000885504
7 *422:6 0.00155748
8 *422:4 0.000208357
9 *422:31 *431:28 0
10 *527:DIODE *422:18 4.96264e-05
11 *528:DIODE *422:18 0.000296509
12 *574:DIODE *422:18 0
13 *574:DIODE *422:31 0.000170889
14 *4125:C *422:18 2.07484e-05
15 *4137:B *4294:A 0.00026849
16 *4137:B *422:6 4.2573e-05
17 *4137:B *422:18 0.000228903
18 *4297:B *422:18 0
19 *4513:A *422:31 0
20 *100:135 *422:18 0.000471357
21 *230:35 *4294:A 0.000185087
22 *230:35 *422:6 1.41077e-05
23 *230:35 *422:18 8.65442e-05
24 *231:10 *4294:A 8.92783e-05
25 *231:10 *422:31 0
26 *310:40 *422:31 0
27 *312:8 *422:18 0
*RES
1 *4506:X *422:4 23 
2 *422:4 *422:6 0.621429 
3 *422:6 *422:18 45.3079 
4 *422:18 *4125:A 23 
5 *422:6 *422:31 42.4286 
6 *422:31 *4295:A 23 
7 *422:4 *4294:A 29.5457 
*END

*D_NET *423 0.000846923
*CONN
*I *4146:C I *D sky130_fd_sc_hd__nor3_1
*I *4126:C I *D sky130_fd_sc_hd__and3_1
*I *4507:X O *D sky130_fd_sc_hd__dlygate4sd3_1
*CAP
1 *4146:C 0.000150173
2 *4126:C 0
3 *4507:X 8.20416e-05
4 *423:10 0.000150173
5 *423:8 8.20416e-05
6 *4146:C *429:14 0.000102093
7 *4132:A1 *4146:C 0.000106067
8 *4132:B1 *4146:C 0
9 *4285:A2 *423:8 5.56203e-05
10 *100:127 *423:8 3.21223e-05
11 *141:10 *4146:C 7.53384e-06
12 *362:70 *4146:C 7.44257e-05
13 *367:14 *423:8 4.6318e-06
*RES
1 *4507:X *423:8 39.5536 
2 *423:8 *423:10 15 
3 *423:10 *4126:C 23 
4 *423:10 *4146:C 27.5779 
*END

*D_NET *424 0.00065208
*CONN
*I *4340:D I *D sky130_fd_sc_hd__dfxtp_2
*I *4508:X O *D sky130_fd_sc_hd__dlygate4sd3_1
*CAP
1 *4340:D 8.25861e-05
2 *4508:X 9.67411e-05
3 *424:8 0.000179327
4 *4101:A *424:8 4.9171e-05
5 *4285:D1 *4340:D 2.12084e-05
6 *259:42 *4340:D 0.000187085
7 *394:43 *424:8 3.59619e-05
*RES
1 *4508:X *424:8 40.2579 
2 *424:8 *4340:D 40.0973 
*END

*D_NET *425 0.00146102
*CONN
*I *4260:A1 I *D sky130_fd_sc_hd__o21ai_1
*I *4259:A I *D sky130_fd_sc_hd__and2_1
*I *4509:X O *D sky130_fd_sc_hd__dlygate4sd3_1
*CAP
1 *4260:A1 4.47036e-05
2 *4259:A 0.000286718
3 *4509:X 0
4 *425:4 0.000331421
5 *4259:A *4261:B 2.93747e-05
6 *4259:B *4259:A 7.52566e-05
7 *4260:A2 *4259:A 0.000103647
8 *4260:A2 *4260:A1 3.22879e-05
9 *207:23 *4259:A 0.00048285
10 *209:23 *4259:A 1.14876e-05
11 *210:8 *4259:A 6.32777e-05
*RES
1 *4509:X *425:4 23 
2 *425:4 *4259:A 31.265 
3 *425:4 *4260:A1 24.1186 
*END

*D_NET *426 0.000496655
*CONN
*I *4261:B I *D sky130_fd_sc_hd__nor2_1
*I *4510:X O *D sky130_fd_sc_hd__dlygate4sd3_1
*CAP
1 *4261:B 8.80115e-05
2 *4510:X 8.80115e-05
3 *4259:A *4261:B 2.93747e-05
4 *4259:B *4261:B 3.93141e-05
5 *4261:A *4261:B 7.69576e-05
6 *66:10 *4261:B 5.41288e-05
7 *209:23 *4261:B 0.000120857
*RES
1 *4510:X *4261:B 49.5007 
*END

*D_NET *427 0.0040222
*CONN
*I *4300:A I *D sky130_fd_sc_hd__or3_1
*I *4299:B1 I *D sky130_fd_sc_hd__o31a_2
*I *4127:C I *D sky130_fd_sc_hd__or4b_1
*I *4511:X O *D sky130_fd_sc_hd__dlygate4sd3_1
*CAP
1 *4300:A 2.41967e-05
2 *4299:B1 2.16844e-05
3 *4127:C 0
4 *4511:X 0
5 *427:22 0.000527026
6 *427:12 0.000913211
7 *427:4 0.000388697
8 *4127:D_N *427:22 4.95081e-05
9 *4299:A2 *4299:B1 6.29487e-05
10 *4299:A2 *427:22 7.53384e-06
11 *4299:A3 *4299:B1 9.58444e-05
12 *4299:A3 *427:12 0.000146998
13 *4301:A_N *427:22 0.000182826
14 *4301:B *427:22 1.32314e-05
15 *4511:A *427:12 0.000272383
16 *144:24 *427:22 1.76557e-05
17 *144:95 *427:22 1.22822e-05
18 *226:21 *4300:A 7.42621e-05
19 *226:21 *427:12 0.000173278
20 *234:8 *427:22 0.000335142
21 *234:10 *427:22 3.47781e-05
22 *264:12 *427:22 7.90939e-05
23 *264:14 *427:22 6.60662e-05
24 *367:22 *4300:A 8.1796e-05
25 *367:22 *427:12 0.000386743
26 *388:36 *427:22 5.50106e-05
*RES
1 *4511:X *427:4 23 
2 *427:4 *427:12 11.8693 
3 *427:12 *427:22 42.2629 
4 *427:22 *4127:C 23 
5 *427:12 *4299:B1 24.595 
6 *427:4 *4300:A 24.5743 
*END

*D_NET *428 0.00110784
*CONN
*I *4162:A1 I *D sky130_fd_sc_hd__a21o_1
*I *4552:X O *D sky130_fd_sc_hd__dlygate4sd3_1
*CAP
1 *4162:A1 0
2 *4552:X 0.00028206
3 *428:10 0.00028206
4 *4164:A1 *428:10 4.4553e-05
5 *29:10 *428:10 1.94812e-05
6 *134:97 *428:10 0.000322639
7 *150:16 *428:10 0.000157042
*RES
1 *4552:X *428:10 44.8979 
2 *428:10 *4162:A1 38 
*END

*D_NET *429 0.00195933
*CONN
*I *4285:C1 I *D sky130_fd_sc_hd__a2111o_1
*I *4512:X O *D sky130_fd_sc_hd__dlygate4sd3_1
*CAP
1 *4285:C1 0
2 *4512:X 0.000652269
3 *429:14 0.000652269
4 *538:DIODE *429:14 1.38211e-05
5 *4126:B *429:14 4.334e-05
6 *4146:C *429:14 0.000102093
7 *4286:B *429:14 3.86588e-05
8 *4458:A *429:14 9.90847e-05
9 *100:123 *429:14 8.62876e-05
10 *141:10 *429:14 1.7733e-05
11 *141:18 *429:14 2.93431e-05
12 *225:10 *429:14 3.90643e-05
13 *375:10 *429:14 0.000185368
*RES
1 *4512:X *429:14 49.9936 
2 *429:14 *4285:C1 38 
*END

*D_NET *430 0.000922192
*CONN
*I *4403:D I *D sky130_fd_sc_hd__dfxtp_1
*I *4513:X O *D sky130_fd_sc_hd__dlygate4sd3_1
*CAP
1 *4403:D 1.66233e-05
2 *4513:X 0.000444473
3 *430:8 0.000461096
4 *4513:A *430:8 0
5 *311:10 *430:8 0
*RES
1 *4513:X *430:8 45.1879 
2 *430:8 *4403:D 38.1916 
*END

*D_NET *431 0.00160071
*CONN
*I *4295:B I *D sky130_fd_sc_hd__and3_1
*I *4291:A I *D sky130_fd_sc_hd__or2_1
*I *4292:A I *D sky130_fd_sc_hd__and2_1
*I *4514:X O *D sky130_fd_sc_hd__dlygate4sd3_1
*CAP
1 *4295:B 0
2 *4291:A 0.000143425
3 *4292:A 0
4 *4514:X 0.000164804
5 *431:28 0.000105121
6 *431:8 0.000267348
7 *431:6 0.000393849
8 *228:14 *4291:A 0.000100805
9 *228:21 *4291:A 0.000146822
10 *228:33 *4291:A 4.5815e-05
11 *228:33 *431:8 5.3304e-05
12 *228:33 *431:28 4.06408e-05
13 *230:14 *4291:A 0.000101764
14 *310:40 *431:28 3.70094e-05
15 *422:31 *431:28 0
*RES
1 *4514:X *431:6 26.0036 
2 *431:6 *431:8 2.05071 
3 *431:8 *4292:A 23 
4 *431:8 *4291:A 26.9771 
5 *431:6 *431:28 32.2579 
6 *431:28 *4295:B 23 
*END

*D_NET *432 0.0028169
*CONN
*I *4242:B1 I *D sky130_fd_sc_hd__o31a_1
*I *4243:A I *D sky130_fd_sc_hd__or4_1
*I *4245:B1 I *D sky130_fd_sc_hd__o311a_2
*I *4516:X O *D sky130_fd_sc_hd__dlygate4sd3_1
*CAP
1 *4242:B1 2.85285e-05
2 *4243:A 0
3 *4245:B1 0
4 *4516:X 0
5 *432:31 0.000395072
6 *432:21 0.000569694
7 *432:12 0.000321288
8 *432:4 0.000467382
9 *432:12 *4245:A1 4.21594e-06
10 *432:12 *460:54 0.000373091
11 *432:21 *4242:A1 0.000143655
12 *432:21 *4242:A2 5.41288e-05
13 *432:21 *460:50 9.24795e-06
14 *432:31 *4242:A2 2.61526e-05
15 *432:31 *488:70 0.000349824
16 *4593:A *432:12 0
17 *122:38 *432:31 1.86973e-05
18 *198:6 *432:12 2.63049e-05
19 *198:19 *432:12 0
20 *263:63 *432:31 2.96154e-05
*RES
1 *4516:X *432:4 23 
2 *432:4 *432:12 36.1729 
3 *432:12 *4245:B1 23 
4 *432:4 *432:21 3.50071 
5 *432:21 *432:31 36.2557 
6 *432:31 *4243:A 23 
7 *432:21 *4242:B1 23.4971 
*END

*D_NET *433 0.000478115
*CONN
*I *4347:D I *D sky130_fd_sc_hd__dfxtp_1
*I *4563:X O *D sky130_fd_sc_hd__dlygate4sd3_1
*CAP
1 *4347:D 9.26771e-06
2 *4563:X 0.000169974
3 *433:10 0.000179242
4 *4347:D *4616:A 1.64354e-05
5 *433:10 *495:12 4.03343e-05
6 *9:10 *4347:D 4.9054e-06
7 *34:8 *433:10 5.79559e-05
8 *267:59 *433:10 0
9 *267:65 *433:10 0
*RES
1 *4563:X *433:10 40.8793 
2 *433:10 *4347:D 38.1916 
*END

*D_NET *434 0.0156049
*CONN
*I *522:DIODE I *D sky130_fd_sc_hd__diode_2
*I *4283:B I *D sky130_fd_sc_hd__or2_1
*I *4608:X O *D sky130_fd_sc_hd__buf_1
*CAP
1 *522:DIODE 0
2 *4283:B 0.0001364
3 *4608:X 6.41771e-05
4 *434:20 0.00181156
5 *434:16 0.00517568
6 *434:14 0.00562886
7 *434:8 0.00219251
8 *4383:D *434:20 5.27422e-05
9 *4466:A *434:20 0.000128401
10 *4467:A *434:16 0.000143655
11 *4467:A *434:20 0.00012377
12 *4470:A *434:20 3.16784e-05
13 *14:13 *434:8 2.79004e-05
14 *281:10 *434:20 3.46445e-05
15 *382:6 *434:20 5.29672e-05
*RES
1 *4608:X *434:8 39.2014 
2 *434:8 *434:14 43.0368 
3 *434:14 *434:16 60.4132 
4 *434:16 *434:20 22.5579 
5 *434:20 *4283:B 25.2993 
6 *434:20 *522:DIODE 23 
*END

*D_NET *435 0.00178379
*CONN
*I *4154:A1 I *D sky130_fd_sc_hd__o21ba_1
*I *4574:X O *D sky130_fd_sc_hd__dlygate4sd3_1
*CAP
1 *4154:A1 0
2 *4574:X 9.01449e-05
3 *435:12 0.000609838
4 *435:8 0.000699983
5 *435:12 *4574:A 0
6 *435:12 *445:8 0
7 *435:12 *494:8 0.000194318
8 *4:8 *435:12 0.000189504
9 *8:8 *435:12 0
10 *24:10 *435:12 0
*RES
1 *4574:X *435:8 39.0979 
2 *435:8 *435:12 28.1743 
3 *435:12 *4154:A1 23 
*END

*D_NET *436 0.000304921
*CONN
*I *4343:D I *D sky130_fd_sc_hd__dfxtp_1
*I *4585:X O *D sky130_fd_sc_hd__dlygate4sd3_1
*CAP
1 *4343:D 1.31802e-05
2 *4585:X 9.67085e-05
3 *436:8 0.000109889
4 *24:10 *436:8 8.51432e-05
5 *302:8 *436:8 0
*RES
1 *4585:X *436:8 40.2579 
2 *436:8 *4343:D 38.1916 
*END

*D_NET *437 0.000576208
*CONN
*I *4166:A1 I *D sky130_fd_sc_hd__a21o_1
*I *4596:X O *D sky130_fd_sc_hd__dlygate4sd3_1
*CAP
1 *4166:A1 0.000161715
2 *4596:X 7.63852e-05
3 *437:8 0.0002381
4 *437:8 *511:10 0
5 *4166:A2 *4166:A1 2.93845e-05
6 *4166:B1 *4166:A1 7.06229e-05
*RES
1 *4596:X *437:8 39.2014 
2 *437:8 *4166:A1 40.5271 
*END

*D_NET *438 0.000608767
*CONN
*I *4349:D I *D sky130_fd_sc_hd__dfxtp_1
*I *4438:X O *D sky130_fd_sc_hd__dlygate4sd3_1
*CAP
1 *4349:D 0.000209035
2 *4438:X 9.53488e-05
3 *438:8 0.000304384
4 *438:8 *511:10 0
5 *30:8 *438:8 0
*RES
1 *4438:X *438:8 39.5536 
2 *438:8 *4349:D 41.5266 
*END

*D_NET *439 0.00259747
*CONN
*I *4210:A I *D sky130_fd_sc_hd__or2_1
*I *4193:A1 I *D sky130_fd_sc_hd__o211a_1
*I *4449:X O *D sky130_fd_sc_hd__dlygate4sd3_1
*CAP
1 *4210:A 0.000714192
2 *4193:A1 0.000273925
3 *4449:X 0
4 *439:6 0.000988118
5 *4193:A1 *4197:A1 0.000404502
6 *4210:A *490:8 0
7 *4366:D *4210:A 1.64354e-05
8 *39:10 *4193:A1 5.83407e-05
9 *39:10 *4210:A 0
10 *177:80 *4210:A 0.000141954
11 *291:10 *4210:A 0
*RES
1 *4449:X *439:6 38 
2 *439:6 *4193:A1 45.395 
3 *439:6 *4210:A 48.1914 
*END

*D_NET *440 0.000629748
*CONN
*I *4358:D I *D sky130_fd_sc_hd__dfxtp_1
*I *4460:X O *D sky130_fd_sc_hd__dlygate4sd3_1
*CAP
1 *4358:D 0.00010565
2 *4460:X 9.17955e-05
3 *440:8 0.000197445
4 *4358:D *4195:A1 0.000234857
5 *39:10 *440:8 0
*RES
1 *4460:X *440:8 39.5536 
2 *440:8 *4358:D 40.5737 
*END

*D_NET *441 0.00320997
*CONN
*I *4226:A1 I *D sky130_fd_sc_hd__o211a_1
*I *4240:A I *D sky130_fd_sc_hd__or2_1
*I *4471:X O *D sky130_fd_sc_hd__dlygate4sd3_1
*CAP
1 *4226:A1 2.34823e-05
2 *4240:A 0.000856943
3 *4471:X 8.60102e-05
4 *441:6 0.000966436
5 *4240:A *4133:A_N 9.55851e-05
6 *4240:A *4241:A1 0.000220037
7 *4240:A *4241:A2 9.67842e-05
8 *4241:B1 *4240:A 2.98648e-05
9 *4471:A *4240:A 0.000168985
10 *4471:A *441:6 8.25584e-05
11 *122:8 *4240:A 2.88036e-05
12 *131:10 *4240:A 0.000230604
13 *178:24 *441:6 0.000223692
14 *187:6 *441:6 0.00010018
*RES
1 *4471:X *441:6 26.0036 
2 *441:6 *4240:A 37.6243 
3 *441:6 *4226:A1 23.4971 
*END

*D_NET *442 0.00114495
*CONN
*I *4373:D I *D sky130_fd_sc_hd__dfxtp_1
*I *4482:X O *D sky130_fd_sc_hd__dlygate4sd3_1
*CAP
1 *4373:D 0.000191342
2 *4482:X 8.82946e-05
3 *442:8 0.000279637
4 *442:8 *455:14 0.000169683
5 *97:45 *4373:D 0.000226306
6 *298:10 *442:8 0
7 *373:216 *4373:D 0.000189681
*RES
1 *4482:X *442:8 40.2579 
2 *442:8 *4373:D 42.9559 
*END

*D_NET *443 0.000563324
*CONN
*I *4168:A1 I *D sky130_fd_sc_hd__a21o_1
*I *4493:X O *D sky130_fd_sc_hd__dlygate4sd3_1
*CAP
1 *4168:A1 0
2 *4493:X 0.000259992
3 *443:10 0.000259992
4 *340:25 *443:10 4.334e-05
*RES
1 *4493:X *443:10 41.7286 
2 *443:10 *4168:A1 38 
*END

*D_NET *444 0.000380157
*CONN
*I *4350:D I *D sky130_fd_sc_hd__dfxtp_1
*I *4504:X O *D sky130_fd_sc_hd__dlygate4sd3_1
*CAP
1 *4350:D 9.8283e-05
2 *4504:X 9.17955e-05
3 *444:8 0.000190079
4 *31:8 *444:8 0
5 *260:43 *444:8 0
*RES
1 *4504:X *444:8 39.5536 
2 *444:8 *4350:D 39.6209 
*END

*D_NET *445 0.000521101
*CONN
*I *4574:A I *D sky130_fd_sc_hd__dlygate4sd3_1
*I *4611:A I *D sky130_fd_sc_hd__buf_2
*I *4343:Q O *D sky130_fd_sc_hd__dfxtp_1
*CAP
1 *4574:A 0.000134925
2 *4611:A 0
3 *4343:Q 0.000103955
4 *445:8 0.00023888
5 *4:8 *445:8 4.334e-05
6 *435:12 *4574:A 0
7 *435:12 *445:8 0
*RES
1 *4343:Q *445:8 40.2579 
2 *445:8 *4611:A 38 
3 *445:8 *4574:A 40.61 
*END

*D_NET *446 0.00529943
*CONN
*I *4302:A1 I *D sky130_fd_sc_hd__o21ai_1
*I *4305:B I *D sky130_fd_sc_hd__and2_1
*I *4127:B I *D sky130_fd_sc_hd__or4b_1
*I *4303:A1 I *D sky130_fd_sc_hd__a21oi_1
*I *4304:A1 I *D sky130_fd_sc_hd__a21o_1
*I *4515:X O *D sky130_fd_sc_hd__dlygate4sd3_1
*CAP
1 *4302:A1 0
2 *4305:B 0.000163983
3 *4127:B 0
4 *4303:A1 0.000473087
5 *4304:A1 0.000129886
6 *4515:X 0
7 *446:60 0.000146429
8 *446:36 0.000226809
9 *446:10 0.000860733
10 *446:8 0.000783703
11 *446:4 0.000609547
12 *4304:A2 *4304:A1 5.67058e-05
13 *4309:C1 *4304:A1 3.88504e-05
14 *4309:C1 *446:10 3.57033e-05
15 *4406:CLK *4303:A1 0.000192614
16 *4406:CLK *446:10 0
17 *4406:D *4303:A1 1.64354e-05
18 *82:10 *4303:A1 5.14746e-06
19 *83:10 *4303:A1 0.000181131
20 *126:8 *4305:B 0
21 *144:24 *4305:B 4.16661e-05
22 *144:24 *446:10 2.72055e-05
23 *144:24 *446:36 2.36844e-05
24 *234:24 *446:8 0.000441978
25 *234:64 *446:60 3.83778e-05
26 *236:10 *446:60 0.000163352
27 *237:10 *4304:A1 0.000148106
28 *237:10 *446:10 0.000129412
29 *264:14 *4305:B 0
30 *264:14 *446:10 0
31 *264:14 *446:36 0
32 *319:8 *446:10 0.000176893
33 *388:36 *4305:B 0.000187996
*RES
1 *4515:X *446:4 23 
2 *446:4 *446:8 21.815 
3 *446:8 *446:10 7.18786 
4 *446:10 *4304:A1 41.0036 
5 *446:10 *4303:A1 46.41 
6 *446:8 *446:36 1.20143 
7 *446:36 *4127:B 38 
8 *446:36 *4305:B 41.6664 
9 *446:4 *446:60 32.8793 
10 *446:60 *4302:A1 23 
*END

*D_NET *447 0.000441443
*CONN
*I *4405:D I *D sky130_fd_sc_hd__dfxtp_1
*I *4517:X O *D sky130_fd_sc_hd__dlygate4sd3_1
*CAP
1 *4405:D 1.36537e-05
2 *4517:X 0.000167348
3 *447:10 0.000181002
4 *82:10 *447:10 0
5 *234:24 *447:10 2.38288e-05
6 *264:14 *447:10 5.561e-05
*RES
1 *4517:X *447:10 40.6514 
2 *447:10 *4405:D 38.1916 
*END

*D_NET *448 0.00278313
*CONN
*I *4284:A1 I *D sky130_fd_sc_hd__a31o_1
*I *4206:A I *D sky130_fd_sc_hd__or2_1
*I *4518:X O *D sky130_fd_sc_hd__dlygate4sd3_1
*CAP
1 *4284:A1 0.000192511
2 *4206:A 0.000721953
3 *4518:X 0
4 *448:4 0.000914464
5 *4206:A *4206:B 0.00010018
6 *100:66 *4206:A 2.93845e-05
7 *100:79 *4206:A 0.000654978
8 *100:79 *4284:A1 7.88828e-05
9 *176:10 *4206:A 7.43025e-06
10 *373:64 *4284:A1 5.50106e-05
11 *373:145 *4284:A1 1.61361e-05
12 *373:155 *4206:A 1.21972e-05
*RES
1 *4518:X *448:4 23 
2 *448:4 *4206:A 38.3907 
3 *448:4 *4284:A1 26.5007 
*END

*D_NET *449 0.000504649
*CONN
*I *4399:D I *D sky130_fd_sc_hd__dfxtp_1
*I *4520:X O *D sky130_fd_sc_hd__dlygate4sd3_1
*CAP
1 *4399:D 1.13183e-05
2 *4520:X 0.000186441
3 *449:10 0.000197759
4 *4333:A *449:10 0
5 *4399:CLK *4399:D 1.64354e-05
6 *92:10 *449:10 3.56537e-05
7 *264:140 *449:10 5.70419e-05
*RES
1 *4520:X *449:10 41.3557 
2 *449:10 *4399:D 38.1916 
*END

*D_NET *450 0.00347415
*CONN
*I *4133:A_N I *D sky130_fd_sc_hd__and2b_1
*I *4241:A1 I *D sky130_fd_sc_hd__o211a_1
*I *4124:A1 I *D sky130_fd_sc_hd__a221o_1
*I *4521:X O *D sky130_fd_sc_hd__dlygate4sd3_1
*CAP
1 *4133:A_N 7.48592e-05
2 *4241:A1 0.000114763
3 *4124:A1 0.00015765
4 *4521:X 0.000280863
5 *450:21 0.000424234
6 *450:8 0.000673124
7 *450:21 *483:8 0
8 *4240:A *4133:A_N 9.55851e-05
9 *4240:A *4241:A1 0.000220037
10 *4536:A *4124:A1 0.000250249
11 *4554:A *4133:A_N 4.08664e-05
12 *4554:A *4241:A1 0.000272377
13 *100:338 *4124:A1 1.14762e-05
14 *122:8 *4241:A1 2.64616e-05
15 *122:12 *450:21 0
16 *122:32 *450:21 0
17 *151:12 *450:8 0.000396506
18 *151:12 *450:21 0.000401825
19 *261:106 *450:8 0
20 *287:10 *450:8 0
21 *287:14 *4124:A1 3.32734e-05
*RES
1 *4521:X *450:8 43.4271 
2 *450:8 *4124:A1 41.48 
3 *450:8 *450:21 20.4271 
4 *450:21 *4241:A1 27.4329 
5 *450:21 *4133:A_N 24.5743 
*END

*D_NET *451 0.000505438
*CONN
*I *4394:D I *D sky130_fd_sc_hd__dfxtp_1
*I *4522:X O *D sky130_fd_sc_hd__dlygate4sd3_1
*CAP
1 *4394:D 4.53961e-05
2 *4522:X 0.000142534
3 *451:8 0.00018793
4 *100:328 *451:8 0
5 *133:10 *451:8 0
6 *151:12 *451:8 6.28228e-05
7 *261:106 *4394:D 6.67551e-05
*RES
1 *4522:X *451:8 40.61 
2 *451:8 *4394:D 39.3102 
*END

*D_NET *452 0.00211983
*CONN
*I *4129:C I *D sky130_fd_sc_hd__or4_1
*I *4320:A1 I *D sky130_fd_sc_hd__o21ai_1
*I *4319:A I *D sky130_fd_sc_hd__and4_1
*I *4523:X O *D sky130_fd_sc_hd__dlygate4sd3_1
*CAP
1 *4129:C 0.00014931
2 *4320:A1 0.000185106
3 *4319:A 0
4 *4523:X 4.50142e-05
5 *452:15 0.00038259
6 *452:6 9.31886e-05
7 *4129:C *4129:D 9.6254e-05
8 *4320:A1 *4129:D 1.22803e-05
9 *4320:A1 *516:34 7.2094e-05
10 *4320:A1 *516:45 4.42688e-05
11 *4320:A1 *517:10 0.000187129
12 *4317:A2 *4320:A1 0.000206181
13 *144:148 *4129:C 0
14 *144:148 *4320:A1 0.00010018
15 *244:10 *4320:A1 1.01436e-05
16 *245:12 *4320:A1 0.000170365
17 *247:12 *4129:C 1.41077e-05
18 *247:60 *4129:C 0
19 *248:10 *4129:C 0.000156379
20 *248:10 *4320:A1 0.000195238
*RES
1 *4523:X *452:6 23.6214 
2 *452:6 *4319:A 23 
3 *452:6 *452:15 15.6214 
4 *452:15 *4320:A1 46.0993 
5 *452:15 *4129:C 41.7079 
*END

*D_NET *453 0.000213579
*CONN
*I *4321:B I *D sky130_fd_sc_hd__nor2_1
*I *4524:X O *D sky130_fd_sc_hd__dlygate4sd3_1
*CAP
1 *4321:B 3.99576e-05
2 *4524:X 3.99576e-05
3 *144:174 *4321:B 5.47808e-05
4 *247:12 *4321:B 7.88828e-05
*RES
1 *4524:X *4321:B 47.5743 
*END

*D_NET *454 0.00067586
*CONN
*I *4411:D I *D sky130_fd_sc_hd__dfxtp_1
*I *4525:X O *D sky130_fd_sc_hd__dlygate4sd3_1
*CAP
1 *4411:D 9.41237e-05
2 *4525:X 0.000105488
3 *454:8 0.000199612
4 *261:40 *454:8 0
5 *324:8 *4411:D 0.000276636
*RES
1 *4525:X *454:8 39.5536 
2 *454:8 *4411:D 41.0502 
*END

*D_NET *455 0.00232422
*CONN
*I *4224:A1 I *D sky130_fd_sc_hd__o211a_1
*I *4207:A1 I *D sky130_fd_sc_hd__o211a_1
*I *4526:X O *D sky130_fd_sc_hd__dlygate4sd3_1
*CAP
1 *4224:A1 0
2 *4207:A1 0
3 *4526:X 9.83842e-05
4 *455:14 0.000627567
5 *455:6 0.000725951
6 *455:14 *460:109 0
7 *455:14 *460:126 0.000143655
8 *4223:B *455:14 0
9 *4224:A2 *455:6 5.3304e-05
10 *97:45 *455:14 0
11 *100:374 *455:14 7.88828e-05
12 *134:79 *455:6 5.10805e-05
13 *177:10 *455:14 0
14 *178:12 *455:14 2.46345e-05
15 *178:14 *455:14 0.000234084
16 *178:24 *455:14 0.000110922
17 *180:46 *455:14 6.07611e-06
18 *186:10 *455:14 0
19 *373:192 *455:14 0
20 *442:8 *455:14 0.000169683
*RES
1 *4526:X *455:6 25.0507 
2 *455:6 *455:14 42.9879 
3 *455:14 *4207:A1 23 
4 *455:6 *4224:A1 23 
*END

*D_NET *456 0.00787809
*CONN
*I *4612:A I *D sky130_fd_sc_hd__buf_2
*I *4583:A I *D sky130_fd_sc_hd__dlygate4sd3_1
*I *4344:Q O *D sky130_fd_sc_hd__dfxtp_1
*CAP
1 *4612:A 0
2 *4583:A 0
3 *4344:Q 0.000141806
4 *456:25 0.000250375
5 *456:12 0.00216996
6 *456:6 0.00256214
7 *456:12 *4175:A1 5.66116e-05
8 *456:12 *4344:D 8.38361e-05
9 *456:25 *496:10 8.62783e-05
10 *4148:B *456:12 0
11 *4175:B1 *456:12 1.02535e-05
12 *4188:B1 *456:12 0.000271722
13 *4188:B2 *456:12 0.000218952
14 *4344:CLK *456:12 4.67488e-05
15 *4351:CLK *456:12 8.92243e-05
16 *4351:D *456:12 1.74843e-05
17 *4602:A *456:12 3.52383e-05
18 *5:8 *456:25 0.000199125
19 *133:122 *456:25 0.000400597
20 *143:24 *456:12 0.00105042
21 *153:21 *456:12 2.68751e-05
22 *265:130 *456:25 2.04774e-05
23 *362:35 *456:12 9.86236e-05
24 *368:8 *456:25 4.13537e-05
*RES
1 *4344:Q *456:6 24.5743 
2 *456:6 *456:12 47.3971 
3 *456:12 *4583:A 38 
4 *456:6 *456:25 37.54 
5 *456:25 *4612:A 23 
*END

*D_NET *457 0.00114461
*CONN
*I *4372:D I *D sky130_fd_sc_hd__dfxtp_1
*I *4527:X O *D sky130_fd_sc_hd__dlygate4sd3_1
*CAP
1 *4372:D 8.77079e-06
2 *4527:X 0.000184984
3 *457:10 0.000193755
4 *4526:A *457:10 0.000217743
5 *52:8 *457:10 0.000114074
6 *177:27 *457:10 0.000338229
7 *178:14 *457:10 0
8 *178:41 *4372:D 1.74843e-05
9 *178:61 *457:10 5.3304e-05
10 *266:66 *457:10 1.02387e-05
11 *266:79 *457:10 6.02277e-06
*RES
1 *4527:X *457:10 43.6964 
2 *457:10 *4372:D 38.1916 
*END

*D_NET *458 0.00601761
*CONN
*I *4327:C I *D sky130_fd_sc_hd__and4_2
*I *4323:A1 I *D sky130_fd_sc_hd__a21oi_1
*I *4322:A1 I *D sky130_fd_sc_hd__o21ai_1
*I *4324:A1 I *D sky130_fd_sc_hd__a21o_1
*I *4325:B I *D sky130_fd_sc_hd__and3_1
*I *4129:B I *D sky130_fd_sc_hd__or4_1
*I *4528:X O *D sky130_fd_sc_hd__dlygate4sd3_1
*CAP
1 *4327:C 3.83561e-05
2 *4323:A1 0
3 *4322:A1 0.000175013
4 *4324:A1 0
5 *4325:B 0.000330419
6 *4129:B 5.94923e-05
7 *4528:X 0.000289172
8 *458:52 7.80281e-05
9 *458:46 0.000724227
10 *458:20 0.000542439
11 *458:14 0.000810645
12 *458:12 0.000514458
13 *458:52 *459:8 0
14 *4322:A2 *4322:A1 9.24339e-05
15 *4322:A2 *458:46 7.43025e-06
16 *4322:B1 *4322:A1 0.000315852
17 *4325:A *4325:B 1.79042e-06
18 *4325:C *4325:B 2.19639e-05
19 *4327:B *4327:C 4.99867e-05
20 *4327:B *458:14 0.000118116
21 *4500:A *458:14 7.94241e-05
22 *4500:A *458:20 2.84809e-05
23 *4501:A *458:46 0.00012261
24 *4529:A *4322:A1 3.22879e-05
25 *144:140 *458:20 0
26 *152:16 *458:12 0.000355822
27 *247:29 *458:46 5.3304e-05
28 *247:60 *4129:B 8.62783e-05
29 *247:60 *458:20 5.8622e-05
30 *249:6 *4322:A1 0.000404502
31 *251:12 *4325:B 0.000193739
32 *251:12 *458:46 0.000167251
33 *251:18 *458:12 0
34 *251:18 *458:14 0
35 *251:18 *458:20 0
36 *252:6 *458:12 2.93747e-05
37 *261:40 *458:52 0.000114092
38 *418:8 *458:14 0.000111852
39 *418:8 *458:20 1.01436e-05
*RES
1 *4528:X *458:12 44.3282 
2 *458:12 *458:14 4.54679 
3 *458:14 *458:20 3.14857 
4 *458:20 *4129:B 39.2014 
5 *458:20 *4325:B 42.9093 
6 *458:14 *458:46 22.9336 
7 *458:46 *458:52 31.5536 
8 *458:52 *4324:A1 23 
9 *458:46 *4322:A1 30.3121 
10 *458:46 *4323:A1 23 
11 *458:12 *4327:C 38.6732 
*END

*D_NET *459 0.000507647
*CONN
*I *4412:D I *D sky130_fd_sc_hd__dfxtp_1
*I *4529:X O *D sky130_fd_sc_hd__dlygate4sd3_1
*CAP
1 *4412:D 0.000158445
2 *4529:X 9.53785e-05
3 *459:8 0.000253824
4 *458:52 *459:8 0
*RES
1 *4529:X *459:8 39.5536 
2 *459:8 *4412:D 40.5737 
*END

*D_NET *460 0.0242606
*CONN
*I *4194:A I *D sky130_fd_sc_hd__or2_1
*I *4196:A I *D sky130_fd_sc_hd__or2_1
*I *4198:A I *D sky130_fd_sc_hd__or2_1
*I *4200:A I *D sky130_fd_sc_hd__or2_1
*I *4202:A I *D sky130_fd_sc_hd__or2_1
*I *4204:A I *D sky130_fd_sc_hd__or2_1
*I *4206:B I *D sky130_fd_sc_hd__or2_1
*I *4243:B I *D sky130_fd_sc_hd__or4_1
*I *4152:B2 I *D sky130_fd_sc_hd__a32o_1
*I *4242:A1 I *D sky130_fd_sc_hd__o31a_1
*I *4122:A1 I *D sky130_fd_sc_hd__a21bo_2
*I *4245:A1 I *D sky130_fd_sc_hd__o311a_2
*I *4123:A I *D sky130_fd_sc_hd__nand2_1
*I *4097:A I *D sky130_fd_sc_hd__inv_2
*I *4531:X O *D sky130_fd_sc_hd__dlygate4sd3_1
*CAP
1 *4194:A 0.000171659
2 *4196:A 0
3 *4198:A 0
4 *4200:A 1.49868e-05
5 *4202:A 0
6 *4204:A 0
7 *4206:B 0.000404077
8 *4243:B 0
9 *4152:B2 0
10 *4242:A1 2.4595e-05
11 *4122:A1 0.000500067
12 *4245:A1 0.000178222
13 *4123:A 2.77218e-05
14 *4097:A 3.3646e-05
15 *4531:X 0.000263265
16 *460:192 0.000362722
17 *460:179 0.000457457
18 *460:175 0.00122401
19 *460:156 0.00212903
20 *460:143 0.000202381
21 *460:133 0.00154511
22 *460:126 0.000376984
23 *460:109 0.00133247
24 *460:91 5.62067e-05
25 *460:54 0.000938861
26 *460:50 0.000703153
27 *460:44 0.000737812
28 *460:42 0.000694366
29 *460:25 0.000580834
30 *460:12 0.000353131
31 *460:6 0.0011981
32 *4097:A *488:20 5.3304e-05
33 *4194:A *4196:B 9.67842e-05
34 *460:12 *488:20 0.00019654
35 *460:25 *488:20 1.22803e-05
36 *460:42 *488:47 0
37 *460:44 *488:70 7.44161e-06
38 *460:50 *4242:A2 2.4754e-05
39 *460:156 *4184:A1 0.00010018
40 *460:156 *4363:D 0.000231205
41 *460:156 *508:10 2.92911e-06
42 *460:175 *4201:A1 0
43 *460:175 *4218:A1 0
44 *460:175 *463:16 5.94125e-05
45 *460:175 *466:8 0
46 *460:175 *468:8 5.50106e-05
47 *460:175 *468:42 0
48 *460:175 *470:10 0.00014411
49 *460:179 *468:42 0.000272383
50 *460:179 *470:10 5.50106e-05
51 *460:179 *491:12 0.000182826
52 *460:192 *491:12 4.34745e-05
53 *4122:B1_N *4122:A1 8.80821e-05
54 *4135:A1 *460:6 6.16045e-05
55 *4167:A2 *4206:B 8.08511e-05
56 *4192:B *4194:A 2.93845e-05
57 *4199:B1 *460:179 5.67058e-05
58 *4199:C1 *460:179 5.50106e-05
59 *4201:C1 *4200:A 5.51653e-05
60 *4206:A *4206:B 0.00010018
61 *4223:B *460:109 1.88491e-05
62 *4227:A *460:12 2.24048e-05
63 *4227:A *460:25 0.000244526
64 *4227:A *460:42 0.000166522
65 *4227:B *460:42 5.50049e-05
66 *4240:B *4122:A1 2.32004e-05
67 *4242:A3 *460:54 0
68 *4244:B *4242:A1 2.4754e-05
69 *4244:B *460:50 9.84851e-05
70 *4363:CLK *460:156 1.94693e-05
71 *4375:CLK *460:42 0.000521114
72 *4375:CLK *460:44 9.74625e-05
73 *4593:A *4245:A1 0
74 *45:8 *460:143 5.3304e-05
75 *60:8 *460:50 0
76 *97:12 *460:12 0.00010404
77 *97:12 *460:109 5.12254e-05
78 *97:22 *460:126 0.000157138
79 *97:77 *460:175 0
80 *100:291 *4206:B 4.85126e-05
81 *100:313 *4206:B 0.000209092
82 *100:374 *4206:B 1.78655e-05
83 *100:374 *460:109 8.9458e-05
84 *100:374 *460:126 2.26778e-05
85 *113:8 *460:6 5.67058e-05
86 *122:45 *4123:A 5.3304e-05
87 *131:10 *460:12 4.27916e-05
88 *132:8 *460:12 8.85189e-05
89 *133:8 *460:109 8.06804e-06
90 *133:10 *4206:B 0.000130705
91 *133:10 *460:109 0
92 *140:51 *4122:A1 0
93 *140:209 *460:91 0.000138718
94 *176:10 *4206:B 3.7122e-06
95 *177:10 *460:109 3.35885e-06
96 *177:119 *460:175 0
97 *180:10 *460:109 0.000246757
98 *180:19 *460:109 0.000246739
99 *198:6 *4242:A1 5.50106e-05
100 *199:10 *460:44 0.00012612
101 *199:10 *460:50 0.000268873
102 *259:154 *460:133 0.000168985
103 *259:160 *460:126 0.000609764
104 *259:160 *460:133 0.000144067
105 *259:213 *460:133 2.43944e-05
106 *259:213 *460:143 0
107 *259:213 *460:156 1.3109e-05
108 *267:14 *460:175 0
109 *267:38 *460:175 0
110 *289:10 *460:25 0.000138727
111 *290:8 *460:91 0.000138718
112 *290:16 *4123:A 2.64616e-05
113 *295:8 *460:175 0.000137788
114 *301:8 *460:192 1.37349e-05
115 *301:27 *460:192 0.000126936
116 *305:10 *460:175 0.000187129
117 *305:26 *460:156 1.01436e-05
118 *305:26 *460:175 0.000218952
119 *306:24 *460:143 3.89637e-05
120 *307:34 *460:126 4.95081e-05
121 *307:34 *460:133 0.000612366
122 *307:34 *460:143 0.000216721
123 *341:19 *460:54 0.000246748
124 *343:10 *4122:A1 0.000140958
125 *343:10 *460:54 1.14452e-05
126 *356:18 *4122:A1 0
127 *356:27 *460:54 0
128 *362:185 *460:192 0
129 *373:155 *4206:B 6.48142e-05
130 *373:216 *460:109 0
131 *373:257 *460:25 2.65002e-05
132 *373:257 *460:42 3.81554e-05
133 *373:270 *460:42 3.66893e-05
134 *373:359 *4200:A 5.50049e-05
135 *432:12 *4245:A1 4.21594e-06
136 *432:12 *460:54 0.000373091
137 *432:21 *4242:A1 0.000143655
138 *432:21 *460:50 9.24795e-06
139 *455:14 *460:109 0
140 *455:14 *460:126 0.000143655
*RES
1 *4531:X *460:6 27.4329 
2 *460:6 *460:12 20.22 
3 *460:12 *4097:A 38.6214 
4 *460:12 *460:25 3.93571 
5 *460:25 *4123:A 38.6214 
6 *460:25 *460:42 24.6736 
7 *460:42 *460:44 3.95643 
8 *460:44 *460:50 21.5871 
9 *460:50 *460:54 7.105 
10 *460:54 *4245:A1 40.9 
11 *460:54 *4122:A1 46.99 
12 *460:50 *4242:A1 39.5743 
13 *460:44 *460:91 31.9057 
14 *460:91 *4152:B2 23 
15 *460:42 *4243:B 23 
16 *460:6 *460:109 29.355 
17 *460:109 *4206:B 48.6471 
18 *460:109 *460:126 22.3121 
19 *460:126 *4204:A 23 
20 *460:126 *460:133 7.29143 
21 *460:133 *460:143 34.4329 
22 *460:143 *4202:A 23 
23 *460:133 *460:156 30.8879 
24 *460:156 *4200:A 38.6214 
25 *460:156 *460:175 48.3736 
26 *460:175 *460:179 21.3386 
27 *460:179 *4198:A 23 
28 *460:179 *460:192 34.2879 
29 *460:192 *4196:A 23 
30 *460:192 *4194:A 26.0243 
*END

*D_NET *461 0.00203694
*CONN
*I *4220:A1 I *D sky130_fd_sc_hd__o211a_1
*I *4221:A I *D sky130_fd_sc_hd__or2_1
*I *4203:A1 I *D sky130_fd_sc_hd__o211a_1
*I *4532:X O *D sky130_fd_sc_hd__dlygate4sd3_1
*CAP
1 *4220:A1 2.0995e-05
2 *4221:A 0.000269894
3 *4203:A1 0.000185144
4 *4532:X 0
5 *461:25 0.000591443
6 *461:6 0.000485698
7 *461:25 *468:29 0
8 *4370:CLK *461:25 3.22772e-05
9 *51:8 *461:25 6.33614e-05
10 *97:45 *4203:A1 2.90712e-05
11 *97:62 *4203:A1 3.66485e-05
12 *177:119 *4203:A1 0
13 *177:119 *461:25 0
14 *178:41 *4220:A1 1.14154e-05
15 *178:41 *4221:A 0.000213862
16 *180:63 *4221:A 5.50049e-05
17 *259:213 *4203:A1 0
18 *259:213 *461:25 0
19 *266:16 *4221:A 1.14876e-05
20 *266:16 *461:25 3.06338e-05
21 *296:8 *461:25 0
*RES
1 *4532:X *461:6 38 
2 *461:6 *4203:A1 41.3764 
3 *461:6 *461:25 20.4893 
4 *461:25 *4221:A 28.3857 
5 *461:25 *4220:A1 23.4971 
*END

*D_NET *462 0.000624754
*CONN
*I *4363:D I *D sky130_fd_sc_hd__dfxtp_1
*I *4533:X O *D sky130_fd_sc_hd__dlygate4sd3_1
*CAP
1 *4363:D 5.92188e-05
2 *4533:X 0.000104002
3 *462:8 0.00016322
4 *259:213 *4363:D 6.71074e-05
5 *259:213 *462:8 0
6 *266:22 *462:8 0
7 *460:156 *4363:D 0.000231205
*RES
1 *4533:X *462:8 39.5536 
2 *462:8 *4363:D 40.5737 
*END

*D_NET *463 0.00290005
*CONN
*I *4201:A1 I *D sky130_fd_sc_hd__o211a_1
*I *4218:A1 I *D sky130_fd_sc_hd__o211a_1
*I *4219:A I *D sky130_fd_sc_hd__or2_1
*I *4534:X O *D sky130_fd_sc_hd__dlygate4sd3_1
*CAP
1 *4201:A1 0.000265512
2 *4218:A1 0.000323778
3 *4219:A 0
4 *4534:X 0.000220511
5 *463:23 0.00058929
6 *463:16 0.000261425
7 *463:6 0.000481936
8 *4201:A1 *468:14 4.54033e-05
9 *4201:A1 *484:10 0
10 *4218:A1 *468:14 2.26489e-05
11 *4218:A1 *468:42 0.000152973
12 *463:6 *468:14 4.39607e-05
13 *463:16 *466:8 0
14 *463:16 *468:14 8.47571e-05
15 *463:16 *468:29 0
16 *4534:A *463:16 7.88926e-05
17 *4535:A *463:6 3.71369e-05
18 *36:10 *4201:A1 0
19 *43:8 *4201:A1 3.96053e-05
20 *177:119 *463:16 4.21594e-06
21 *184:8 *463:16 0.000108309
22 *266:151 *4218:A1 0
23 *294:8 *4218:A1 7.28526e-05
24 *295:8 *4201:A1 0
25 *295:8 *4218:A1 0
26 *305:26 *4201:A1 0
27 *305:26 *463:6 7.43025e-06
28 *460:175 *4201:A1 0
29 *460:175 *4218:A1 0
30 *460:175 *463:16 5.94125e-05
*RES
1 *4534:X *463:6 26.0036 
2 *463:6 *463:16 34.4743 
3 *463:16 *4219:A 23 
4 *463:6 *463:23 15 
5 *463:23 *4218:A1 45.54 
6 *463:23 *4201:A1 42.64 
*END

*D_NET *464 0.000643624
*CONN
*I *4362:D I *D sky130_fd_sc_hd__dfxtp_1
*I *4535:X O *D sky130_fd_sc_hd__dlygate4sd3_1
*CAP
1 *4362:D 3.84709e-05
2 *4535:X 5.71032e-05
3 *464:8 9.55741e-05
4 *97:77 *464:8 5.21024e-05
5 *267:12 *4362:D 0.00014361
6 *267:14 *464:8 0.000113153
7 *305:10 *4362:D 0.00014361
*RES
1 *4535:X *464:8 39.5536 
2 *464:8 *4362:D 39.6209 
*END

*D_NET *465 0.000576679
*CONN
*I *4133:B I *D sky130_fd_sc_hd__and2b_1
*I *4211:A I *D sky130_fd_sc_hd__nor2_2
*I *4536:X O *D sky130_fd_sc_hd__dlygate4sd3_1
*CAP
1 *4133:B 9.25501e-05
2 *4211:A 0
3 *4536:X 9.84615e-05
4 *465:8 0.000191012
5 *4211:B *4133:B 6.07611e-06
6 *4211:B *465:8 6.93553e-05
7 *97:22 *4133:B 6.11286e-05
8 *259:160 *4133:B 0
9 *259:160 *465:8 0
10 *272:8 *4133:B 5.80963e-05
*RES
1 *4536:X *465:8 39.9057 
2 *465:8 *4211:A 38 
3 *465:8 *4133:B 40.61 
*END

*D_NET *466 0.000640374
*CONN
*I *4370:D I *D sky130_fd_sc_hd__dfxtp_1
*I *4537:X O *D sky130_fd_sc_hd__dlygate4sd3_1
*CAP
1 *4370:D 0.000213424
2 *4537:X 8.01904e-05
3 *466:8 0.000293615
4 *4539:A *466:8 5.31444e-05
5 *460:175 *466:8 0
6 *463:16 *466:8 0
*RES
1 *4537:X *466:8 39.5536 
2 *466:8 *4370:D 41.0502 
*END

*D_NET *467 0.00277792
*CONN
*I *4562:A I *D sky130_fd_sc_hd__dlygate4sd3_1
*I *4613:A I *D sky130_fd_sc_hd__buf_2
*I *4345:Q O *D sky130_fd_sc_hd__dfxtp_1
*CAP
1 *4562:A 0.000169955
2 *4613:A 0.000332832
3 *4345:Q 0.000118719
4 *467:8 0.000621505
5 *4562:A *492:8 0.000264564
6 *4613:A *489:23 0
7 *467:8 *489:23 0
8 *4154:B1_N *4562:A 0.000389777
9 *4541:A *4613:A 0.000182826
10 *133:147 *4613:A 9.28739e-05
11 *133:147 *467:8 2.24973e-05
12 *133:159 *4562:A 6.97004e-05
13 *134:83 *4562:A 0.000135039
14 *134:93 *4613:A 0.000297222
15 *267:159 *467:8 3.28979e-05
16 *406:10 *4613:A 4.75087e-05
*RES
1 *4345:Q *467:8 40.2579 
2 *467:8 *4613:A 46.9693 
3 *467:8 *4562:A 43.8621 
*END

*D_NET *468 0.00626405
*CONN
*I *4199:A1 I *D sky130_fd_sc_hd__o211a_1
*I *4216:A1 I *D sky130_fd_sc_hd__o211a_1
*I *4217:A I *D sky130_fd_sc_hd__or2_1
*I *4538:X O *D sky130_fd_sc_hd__dlygate4sd3_1
*CAP
1 *4199:A1 0
2 *4216:A1 0
3 *4217:A 0.000175301
4 *4538:X 4.24857e-05
5 *468:42 0.000571538
6 *468:29 0.00059708
7 *468:14 0.0011062
8 *468:8 0.000947842
9 *4201:A1 *468:14 4.54033e-05
10 *4218:A1 *468:14 2.26489e-05
11 *4218:A1 *468:42 0.000152973
12 *4218:A2 *468:29 0
13 *4218:A2 *468:42 0
14 *4218:B1 *468:42 0
15 *4434:A *468:29 0
16 *4534:A *468:14 0.000143655
17 *4537:A *4217:A 0.000141052
18 *4539:A *468:29 0.000561365
19 *4540:A *468:42 5.67058e-05
20 *43:8 *468:14 1.01436e-05
21 *177:119 *4217:A 0.000390182
22 *177:119 *468:14 9.6103e-05
23 *177:119 *468:29 0
24 *178:86 *468:29 0
25 *180:95 *468:29 6.07611e-06
26 *184:8 *4217:A 0.000264924
27 *184:8 *468:14 0.000163005
28 *266:12 *468:29 0
29 *266:151 *468:29 0
30 *267:14 *468:14 0
31 *305:26 *468:14 0.000313255
32 *460:175 *468:8 5.50106e-05
33 *460:175 *468:42 0
34 *460:179 *468:42 0.000272383
35 *461:25 *468:29 0
36 *463:6 *468:14 4.39607e-05
37 *463:16 *468:14 8.47571e-05
38 *463:16 *468:29 0
*RES
1 *4538:X *468:8 38.6214 
2 *468:8 *468:14 25.0257 
3 *468:14 *4217:A 30.7886 
4 *468:14 *468:29 41.7657 
5 *468:29 *4216:A1 23 
6 *468:8 *468:42 27.4907 
7 *468:42 *4199:A1 23 
*END

*D_NET *469 0.000126903
*CONN
*I *4218:C1 I *D sky130_fd_sc_hd__o211a_1
*I *4539:X O *D sky130_fd_sc_hd__dlygate4sd3_1
*CAP
1 *4218:C1 6.74574e-06
2 *4539:X 6.74574e-06
3 *4218:A2 *4218:C1 5.67058e-05
4 *4218:B1 *4218:C1 5.67058e-05
*RES
1 *4539:X *4218:C1 46.6214 
*END

*D_NET *470 0.000485727
*CONN
*I *4369:D I *D sky130_fd_sc_hd__dfxtp_1
*I *4540:X O *D sky130_fd_sc_hd__dlygate4sd3_1
*CAP
1 *4369:D 1.0032e-05
2 *4540:X 0.000101916
3 *470:10 0.000111948
4 *42:8 *470:10 5.561e-05
5 *97:77 *470:10 0
6 *134:83 *4369:D 7.10068e-06
7 *460:175 *470:10 0.00014411
8 *460:179 *470:10 5.50106e-05
*RES
1 *4540:X *470:10 40.5271 
2 *470:10 *4369:D 38.1916 
*END

*D_NET *471 0.00514301
*CONN
*I *4330:A1 I *D sky130_fd_sc_hd__o21ai_1
*I *4333:B I *D sky130_fd_sc_hd__nand3_1
*I *4331:A1 I *D sky130_fd_sc_hd__a21oi_1
*I *4332:A1 I *D sky130_fd_sc_hd__a21o_1
*I *4130:B I *D sky130_fd_sc_hd__or4bb_1
*I *4335:A2 I *D sky130_fd_sc_hd__a31o_1
*I *4542:X O *D sky130_fd_sc_hd__dlygate4sd3_1
*CAP
1 *4330:A1 0
2 *4333:B 2.96171e-05
3 *4331:A1 8.06237e-05
4 *4332:A1 0.000249009
5 *4130:B 0.0001665
6 *4335:A2 2.60756e-05
7 *4542:X 0
8 *471:51 0.000329149
9 *471:12 0.000293877
10 *471:8 0.000519012
11 *471:6 0.00038761
12 *4331:B1 *4331:A1 5.67058e-05
13 *4332:A2 *4332:A1 1.14154e-05
14 *4332:B1 *4332:A1 0.000482846
15 *4333:A *471:51 0
16 *4335:B1 *4130:B 0.000172625
17 *4335:B1 *4335:A2 0.00010018
18 *92:10 *4331:A1 9.4713e-05
19 *92:10 *4333:B 7.27182e-05
20 *93:10 *471:8 8.82627e-05
21 *93:10 *471:12 7.91493e-05
22 *144:205 *471:51 0.00010528
23 *252:37 *4331:A1 3.53115e-05
24 *252:45 *4331:A1 5.3304e-05
25 *252:45 *4333:B 5.50106e-05
26 *252:45 *471:51 8.72173e-05
27 *252:70 *4335:A2 5.67058e-05
28 *256:10 *471:51 0.000367056
29 *256:16 *471:8 0.000348475
30 *256:16 *471:12 0.000247678
31 *256:16 *471:51 6.70363e-05
32 *257:10 *4130:B 0.000196027
33 *308:16 *4331:A1 8.99287e-05
34 *308:16 *4333:B 4.95081e-05
35 *315:10 *471:51 0
36 *316:6 *4332:A1 7.24365e-05
37 *316:12 *471:12 2.61699e-05
38 *316:25 *4332:A1 4.57742e-05
*RES
1 *4542:X *471:6 38 
2 *471:6 *471:8 4.72286 
3 *471:8 *471:12 18.3143 
4 *471:12 *4335:A2 24.0979 
5 *471:12 *4130:B 27.9714 
6 *471:8 *4332:A1 45.4779 
7 *471:6 *471:51 21.8357 
8 *471:51 *4331:A1 26.0036 
9 *471:51 *4333:B 24.5743 
10 *471:51 *4330:A1 23 
*END

*D_NET *472 0.000282775
*CONN
*I *4415:D I *D sky130_fd_sc_hd__dfxtp_1
*I *4543:X O *D sky130_fd_sc_hd__dlygate4sd3_1
*CAP
1 *4415:D 0.000128157
2 *4543:X 0.000128157
3 *264:140 *4415:D 2.64616e-05
*RES
1 *4543:X *4415:D 47.8902 
*END

*D_NET *473 0.00381216
*CONN
*I *4130:C_N I *D sky130_fd_sc_hd__or4bb_1
*I *4328:A1 I *D sky130_fd_sc_hd__o21ai_1
*I *4327:A I *D sky130_fd_sc_hd__and4_2
*I *4544:X O *D sky130_fd_sc_hd__dlygate4sd3_1
*CAP
1 *4130:C_N 0
2 *4328:A1 0.000216044
3 *4327:A 0
4 *4544:X 0
5 *473:34 0.000692065
6 *473:12 0.000136081
7 *473:6 0.000425583
8 *473:4 0.000765523
9 *4130:D_N *473:34 0.000243578
10 *4327:B *473:12 6.07611e-06
11 *4545:A *4328:A1 5.67058e-05
12 *152:16 *473:12 0
13 *252:12 *473:12 0
14 *252:70 *473:12 0
15 *256:16 *473:34 0.000185666
16 *259:92 *473:6 4.95081e-05
17 *259:92 *473:34 0.000556126
18 *259:106 *4328:A1 0.000271476
19 *259:106 *473:6 2.32101e-05
20 *403:10 *473:34 0.000129513
21 *404:10 *473:34 5.50106e-05
*RES
1 *4544:X *473:4 23 
2 *473:4 *473:6 1.57429 
3 *473:6 *473:12 32.2579 
4 *473:12 *4327:A 23 
5 *473:6 *4328:A1 27.93 
6 *473:4 *473:34 46.1779 
7 *473:34 *4130:C_N 23 
*END

*D_NET *474 0.00125847
*CONN
*I *4329:B I *D sky130_fd_sc_hd__nor2_1
*I *4545:X O *D sky130_fd_sc_hd__dlygate4sd3_1
*CAP
1 *4329:B 0
2 *4545:X 0.000282219
3 *474:10 0.000282219
4 *152:16 *474:10 9.2383e-05
5 *252:12 *474:10 0.000348456
6 *259:106 *474:10 0.000216176
7 *384:10 *474:10 3.70187e-05
*RES
1 *4545:X *474:10 44.7736 
2 *474:10 *4329:B 38 
*END

*D_NET *475 0.00057147
*CONN
*I *4414:D I *D sky130_fd_sc_hd__dfxtp_1
*I *4546:X O *D sky130_fd_sc_hd__dlygate4sd3_1
*CAP
1 *4414:D 8.6849e-05
2 *4546:X 9.81231e-05
3 *475:8 0.000184972
4 *100:20 *475:8 1.01436e-05
5 *144:138 *4414:D 0.000191382
6 *252:12 *475:8 0
*RES
1 *4546:X *475:8 39.5536 
2 *475:8 *4414:D 40.0973 
*END

*D_NET *476 0.00364622
*CONN
*I *4197:A1 I *D sky130_fd_sc_hd__o211a_1
*I *4214:A1 I *D sky130_fd_sc_hd__o211a_1
*I *4215:A I *D sky130_fd_sc_hd__or2_1
*I *4547:X O *D sky130_fd_sc_hd__dlygate4sd3_1
*CAP
1 *4197:A1 0.000562942
2 *4214:A1 0.000106106
3 *4215:A 0
4 *4547:X 0.000139853
5 *476:16 0.000515369
6 *476:10 0.000972205
7 *476:8 0.000139853
8 *4193:A1 *4197:A1 0.000404502
9 *4193:A2 *4197:A1 1.76557e-05
10 *4193:B1 *4197:A1 0.000139754
11 *4368:D *476:16 8.38361e-05
12 *41:8 *4197:A1 4.00259e-06
13 *177:72 *4214:A1 0.000275687
14 *177:72 *476:16 3.53115e-05
15 *182:10 *4214:A1 0.000140259
16 *293:10 *4197:A1 5.50106e-05
17 *293:10 *476:8 0
18 *362:192 *4197:A1 5.90675e-06
19 *362:219 *4197:A1 4.79641e-05
*RES
1 *4547:X *476:8 39.5536 
2 *476:8 *476:10 15 
3 *476:10 *476:16 5.90357 
4 *476:16 *4215:A 23 
5 *476:16 *4214:A1 26.5007 
6 *476:10 *4197:A1 34.6 
*END

*D_NET *477 0.000217752
*CONN
*I *4367:D I *D sky130_fd_sc_hd__dfxtp_1
*I *4548:X O *D sky130_fd_sc_hd__dlygate4sd3_1
*CAP
1 *4367:D 1.12314e-05
2 *4548:X 9.49713e-05
3 *477:8 0.000106203
4 *4463:A *477:8 0
5 *266:104 *4367:D 5.34647e-06
6 *266:104 *477:8 0
7 *268:23 *477:8 0
*RES
1 *4548:X *477:8 39.5536 
2 *477:8 *4367:D 38.1916 
*END

*D_NET *478 0.00639885
*CONN
*I *4567:A I *D sky130_fd_sc_hd__dlygate4sd3_1
*I *4614:A I *D sky130_fd_sc_hd__buf_2
*I *4346:Q O *D sky130_fd_sc_hd__dfxtp_1
*CAP
1 *4567:A 0
2 *4614:A 0.000101261
3 *4346:Q 0.000214007
4 *478:39 0.000426944
5 *478:26 0.00109573
6 *478:6 0.00163542
7 *4614:A *504:14 5.56356e-05
8 *478:26 *4346:D 5.92579e-05
9 *478:26 *4353:D 1.74843e-05
10 *478:39 *491:24 3.70923e-05
11 *478:39 *497:10 0.000371555
12 *4156:C1 *478:39 0.000273968
13 *4176:S *4614:A 2.02872e-05
14 *7:16 *4614:A 0.000312772
15 *100:234 *478:26 9.94414e-05
16 *133:122 *478:39 0.000122823
17 *134:107 *478:39 0
18 *146:10 *478:39 1.05658e-05
19 *150:10 *478:6 2.07145e-05
20 *150:10 *478:26 4.47415e-05
21 *153:34 *4614:A 2.98648e-05
22 *153:55 *4614:A 4.42181e-05
23 *267:65 *478:26 0.000495341
24 *267:72 *478:26 0.000152575
25 *329:10 *478:26 0.000130929
26 *339:16 *478:39 5.79413e-06
27 *346:10 *478:26 4.2812e-06
28 *362:10 *478:39 0.000139647
29 *362:271 *478:39 0.00045179
30 *373:12 *478:39 1.80023e-05
31 *373:18 *478:39 6.7177e-06
*RES
1 *4346:Q *478:6 26.0036 
2 *478:6 *478:26 48.1457 
3 *478:26 *4614:A 26.48 
4 *478:6 *478:39 43.1743 
5 *478:39 *4567:A 23 
*END

*D_NET *479 0.00529994
*CONN
*I *4196:B I *D sky130_fd_sc_hd__or2_1
*I *4158:A1 I *D sky130_fd_sc_hd__o211a_1
*I *4178:A1 I *D sky130_fd_sc_hd__o211a_1
*I *4549:X O *D sky130_fd_sc_hd__dlygate4sd3_1
*CAP
1 *4196:B 5.13614e-05
2 *4158:A1 0.000554965
3 *4178:A1 0
4 *4549:X 0.000444759
5 *479:20 0.000725642
6 *479:12 0.00139219
7 *479:10 0.000607703
8 *479:10 *4195:A1 0.000140939
9 *537:DIODE *4158:A1 0.000114721
10 *571:DIODE *479:20 2.71291e-05
11 *4158:C1 *4158:A1 5.3304e-05
12 *4194:A *4196:B 9.67842e-05
13 *4561:A *4158:A1 2.02872e-05
14 *35:10 *479:20 1.34914e-05
15 *97:128 *479:10 0.000112198
16 *100:263 *4158:A1 2.93335e-05
17 *133:159 *4158:A1 0.000188584
18 *142:119 *479:20 3.98604e-05
19 *170:8 *479:10 0.000320651
20 *259:64 *479:20 9.54616e-05
21 *301:8 *479:10 1.89075e-05
22 *301:8 *479:12 1.83564e-05
23 *301:27 *479:12 8.15327e-05
24 *301:27 *479:20 0.000125904
25 *362:157 *479:20 2.5871e-05
26 *362:170 *479:20 0
*RES
1 *4549:X *479:10 47.0314 
2 *479:10 *479:12 2.61 
3 *479:12 *479:20 29.3136 
4 *479:20 *4178:A1 23 
5 *479:12 *4158:A1 48.3364 
6 *479:10 *4196:B 39.0979 
*END

*D_NET *480 0.00591956
*CONN
*I *4250:B1 I *D sky130_fd_sc_hd__a21o_1
*I *4114:C_N I *D sky130_fd_sc_hd__or4bb_1
*I *4109:B I *D sky130_fd_sc_hd__nand2_1
*I *4105:A I *D sky130_fd_sc_hd__and2_1
*I *4106:B I *D sky130_fd_sc_hd__nand4b_1
*I *4550:X O *D sky130_fd_sc_hd__dlygate4sd3_1
*CAP
1 *4250:B1 0.000365795
2 *4114:C_N 0.000288975
3 *4109:B 8.41659e-06
4 *4105:A 3.15879e-05
5 *4106:B 0
6 *4550:X 0
7 *480:32 0.000666339
8 *480:16 0.000490736
9 *480:8 0.000803921
10 *480:6 0.000715035
11 *480:4 0.000430285
12 *4105:A *4105:B 3.91386e-05
13 *4250:B1 *4105:B 0.000340884
14 *480:6 *4105:B 8.6949e-05
15 *480:8 *4105:B 0.000355817
16 *4108:A *4114:C_N 0.000348905
17 *4109:A *480:32 0
18 *4114:D_N *4114:C_N 5.50049e-05
19 *4118:B *4114:C_N 2.02872e-05
20 *4121:A *4114:C_N 0.000138708
21 *103:12 *4114:C_N 3.47781e-05
22 *111:8 *4114:C_N 0
23 *111:8 *480:32 0
24 *115:10 *4114:C_N 0.000182921
25 *115:10 *480:32 0.000161685
26 *117:14 *4114:C_N 0.000175718
27 *134:22 *4114:C_N 0
28 *134:22 *480:32 0
29 *260:20 *480:16 5.41288e-05
30 *280:20 *480:32 0
31 *282:19 *480:16 0
32 *283:90 *480:32 6.7177e-06
33 *284:29 *480:32 0.000116831
34 *284:36 *480:16 0
*RES
1 *4550:X *480:4 23 
2 *480:4 *480:6 1.09786 
3 *480:6 *480:8 4.43286 
4 *480:8 *480:16 36.4629 
5 *480:16 *4106:B 23 
6 *480:8 *4105:A 23.8493 
7 *480:6 *480:32 22.3639 
8 *480:32 *4109:B 38.3211 
9 *480:32 *4114:C_N 46.1925 
10 *480:4 *4250:B1 28.7586 
*END

*D_NET *481 0.000811756
*CONN
*I *4108:C I *D sky130_fd_sc_hd__or4_2
*I *4551:X O *D sky130_fd_sc_hd__dlygate4sd3_1
*CAP
1 *4108:C 0
2 *4551:X 0.000244188
3 *481:10 0.000244188
4 *4121:C *481:10 0.000103647
5 *107:10 *481:10 6.33614e-05
6 *119:8 *481:10 0.000138718
7 *120:16 *481:10 1.76557e-05
*RES
1 *4551:X *481:10 42.4329 
2 *481:10 *4108:C 38 
*END

*D_NET *482 0.00190761
*CONN
*I *4241:A2 I *D sky130_fd_sc_hd__o211a_1
*I *4553:X O *D sky130_fd_sc_hd__dlygate4sd3_1
*CAP
1 *4241:A2 5.1062e-05
2 *4553:X 0.000460283
3 *482:10 0.000511346
4 *4135:A1 *482:10 0.000569793
5 *4240:A *4241:A2 9.67842e-05
6 *4241:B1 *4241:A2 4.37033e-05
7 *122:8 *4241:A2 1.40958e-05
8 *263:18 *482:10 4.96264e-05
9 *373:231 *482:10 0.000110913
*RES
1 *4553:X *482:10 45.8921 
2 *482:10 *4241:A2 39.595 
*END

*D_NET *483 0.000544998
*CONN
*I *4378:D I *D sky130_fd_sc_hd__dfxtp_1
*I *4554:X O *D sky130_fd_sc_hd__dlygate4sd3_1
*CAP
1 *4378:D 1.65545e-05
2 *4554:X 0.00011969
3 *483:8 0.000136244
4 *4373:CLK *4378:D 0.000102732
5 *122:12 *483:8 6.53445e-05
6 *373:216 *4378:D 0.000104433
7 *450:21 *483:8 0
*RES
1 *4554:X *483:8 40.61 
2 *483:8 *4378:D 39.1445 
*END

*D_NET *484 0.00255761
*CONN
*I *4184:A1 I *D sky130_fd_sc_hd__o211a_1
*I *4555:X O *D sky130_fd_sc_hd__dlygate4sd3_1
*CAP
1 *4184:A1 0.000287697
2 *4555:X 0.000412966
3 *484:10 0.000700662
4 *484:10 *485:8 3.5664e-05
5 *4201:A1 *484:10 0
6 *4572:A *4184:A1 0.000228909
7 *36:10 *4184:A1 0.000404502
8 *36:10 *484:10 0
9 *43:8 *484:10 0
10 *267:14 *484:10 0
11 *305:26 *484:10 0.000269781
12 *373:355 *484:10 0.000117254
13 *460:156 *4184:A1 0.00010018
*RES
1 *4555:X *484:10 45.3743 
2 *484:10 *4184:A1 46.265 
*END

*D_NET *485 0.000424311
*CONN
*I *4355:D I *D sky130_fd_sc_hd__dfxtp_1
*I *4556:X O *D sky130_fd_sc_hd__dlygate4sd3_1
*CAP
1 *4355:D 4.10726e-05
2 *4556:X 5.34392e-05
3 *485:8 9.45118e-05
4 *4572:A *4355:D 8.55313e-05
5 *267:14 *485:8 0.000114092
6 *484:10 *485:8 3.5664e-05
*RES
1 *4556:X *485:8 39.5536 
2 *485:8 *4355:D 38.9373 
*END

*D_NET *486 0.0038647
*CONN
*I *4222:A1 I *D sky130_fd_sc_hd__o211a_1
*I *4205:A1 I *D sky130_fd_sc_hd__o211a_1
*I *4557:X O *D sky130_fd_sc_hd__dlygate4sd3_1
*CAP
1 *4222:A1 0
2 *4205:A1 0
3 *4557:X 0.000139449
4 *486:25 0.000512109
5 *486:14 0.000372223
6 *486:6 0.00102378
7 *4205:B1 *486:14 0.000124483
8 *97:45 *486:6 0.000228909
9 *97:45 *486:14 0.000181125
10 *100:374 *486:14 0
11 *177:96 *486:25 6.27951e-05
12 *177:100 *486:25 0.000167452
13 *185:8 *486:25 0
14 *266:22 *486:14 0.000113414
15 *266:22 *486:25 0.000487452
16 *266:66 *486:25 0.000242368
17 *266:79 *486:25 0.000191166
18 *373:192 *486:14 1.79749e-05
*RES
1 *4557:X *486:6 25.5271 
2 *486:6 *486:14 37.1257 
3 *486:14 *4205:A1 23 
4 *486:6 *486:25 42.1179 
5 *486:25 *4222:A1 23 
*END

*D_NET *487 0.00029696
*CONN
*I *4364:D I *D sky130_fd_sc_hd__dfxtp_1
*I *4558:X O *D sky130_fd_sc_hd__dlygate4sd3_1
*CAP
1 *4364:D 5.48656e-06
2 *4558:X 0.000131226
3 *487:8 0.000136712
4 *133:38 *4364:D 7.10068e-06
5 *266:33 *4364:D 1.64354e-05
6 *266:46 *487:8 0
7 *307:23 *487:8 0
*RES
1 *4558:X *487:8 39.9057 
2 *487:8 *4364:D 38.1916 
*END

*D_NET *488 0.012634
*CONN
*I *4232:C I *D sky130_fd_sc_hd__and4_1
*I *4209:A I *D sky130_fd_sc_hd__nand2_2
*I *4142:A I *D sky130_fd_sc_hd__and3_1
*I *4243:C I *D sky130_fd_sc_hd__or4_1
*I *4152:A1 I *D sky130_fd_sc_hd__a32o_1
*I *4242:A2 I *D sky130_fd_sc_hd__o31a_1
*I *4245:A2 I *D sky130_fd_sc_hd__o311a_2
*I *4231:A2 I *D sky130_fd_sc_hd__a31o_1
*I *4208:A I *D sky130_fd_sc_hd__and2_2
*I *4134:A I *D sky130_fd_sc_hd__or3_1
*I *4136:A I *D sky130_fd_sc_hd__or4_4
*I *4559:X O *D sky130_fd_sc_hd__dlygate4sd3_1
*CAP
1 *4232:C 0
2 *4209:A 0
3 *4142:A 0
4 *4243:C 2.34823e-05
5 *4152:A1 0.000159525
6 *4242:A2 7.86035e-05
7 *4245:A2 0
8 *4231:A2 0
9 *4208:A 5.97544e-05
10 *4134:A 0
11 *4136:A 0.000104869
12 *4559:X 0
13 *488:134 0.000307672
14 *488:121 0.000355574
15 *488:85 0.000270372
16 *488:78 0.000540757
17 *488:70 0.00072073
18 *488:66 0.000575786
19 *488:56 0.000599124
20 *488:47 0.000495331
21 *488:20 0.000503081
22 *488:12 0.000579734
23 *488:8 0.000513178
24 *488:4 0.000138533
25 *530:DIODE *488:56 5.29672e-05
26 *567:DIODE *488:66 5.3304e-05
27 *4097:A *488:20 5.3304e-05
28 *4099:A *488:56 2.4754e-05
29 *4099:A *488:66 2.93845e-05
30 *4134:B *4136:A 2.95972e-05
31 *4136:C *4136:A 0.000201048
32 *4145:A2 *4136:A 0.00018282
33 *4209:B *488:121 5.90675e-06
34 *4227:A *488:47 0
35 *4227:C *488:12 9.64022e-05
36 *4227:C *488:47 7.55491e-05
37 *4231:A3 *488:47 1.94693e-05
38 *4231:A3 *488:56 3.91386e-05
39 *4232:D *488:134 7.6144e-05
40 *4233:C *488:56 0
41 *4242:A3 *488:78 0.000179682
42 *4242:A3 *488:85 1.37349e-05
43 *4243:D *488:66 9.67842e-05
44 *4245:A3 *488:78 0.00022295
45 *4375:CLK *488:66 0.000187564
46 *4375:CLK *488:70 5.25848e-05
47 *4559:A *488:47 7.91206e-05
48 *19:8 *4152:A1 0
49 *56:10 *488:47 8.41012e-05
50 *61:12 *488:78 2.47815e-05
51 *99:8 *488:47 0
52 *122:54 *488:8 0.000100733
53 *122:60 *488:12 0
54 *122:60 *488:47 0
55 *122:67 *488:8 0.00014698
56 *122:67 *488:121 5.70419e-05
57 *122:80 *488:121 4.19743e-05
58 *122:80 *488:134 0.000761164
59 *131:10 *488:20 4.6318e-06
60 *131:14 *4136:A 4.08664e-05
61 *134:64 *4136:A 1.76557e-05
62 *140:209 *4152:A1 0.000104123
63 *140:209 *488:78 0.000212702
64 *140:209 *488:85 3.0647e-05
65 *151:12 *488:66 0.000144915
66 *177:27 *488:134 2.71291e-05
67 *177:46 *488:134 3.47879e-05
68 *199:10 *4242:A2 0.000141954
69 *199:10 *488:70 8.95945e-05
70 *259:160 *488:20 3.95159e-06
71 *266:79 *488:134 1.12487e-05
72 *289:10 *488:20 2.93845e-05
73 *290:16 *488:8 0.000443679
74 *290:16 *488:121 0.000173898
75 *290:16 *488:134 0.000168821
76 *343:10 *488:78 5.50106e-05
77 *356:27 *488:78 3.0647e-05
78 *356:49 *4136:A 5.67058e-05
79 *365:14 *488:66 0
80 *366:12 *488:56 0.000230604
81 *366:12 *488:66 5.50106e-05
82 *373:257 *4136:A 2.32101e-05
83 *373:257 *488:20 0.000194309
84 *373:270 *488:66 0.000188926
85 *379:10 *488:134 5.94125e-05
86 *379:32 *488:134 0.000374011
87 *432:21 *4242:A2 5.41288e-05
88 *432:31 *4242:A2 2.61526e-05
89 *432:31 *488:70 0.000349824
90 *460:12 *488:20 0.00019654
91 *460:25 *488:20 1.22803e-05
92 *460:42 *488:47 0
93 *460:44 *488:70 7.44161e-06
94 *460:50 *4242:A2 2.4754e-05
*RES
1 *4559:X *488:4 23 
2 *488:4 *488:8 19.9093 
3 *488:8 *488:12 17.61 
4 *488:12 *488:20 37.8714 
5 *488:20 *4136:A 26.9771 
6 *488:20 *4134:A 23 
7 *488:12 *4208:A 24.0979 
8 *488:8 *488:47 21.8771 
9 *488:47 *4231:A2 23 
10 *488:47 *488:56 5.28214 
11 *488:56 *488:66 39.5493 
12 *488:66 *488:70 19.4329 
13 *488:70 *488:78 27.1386 
14 *488:78 *4245:A2 23 
15 *488:70 *488:85 0.849286 
16 *488:85 *4242:A2 40.5479 
17 *488:85 *4152:A1 40.9621 
18 *488:66 *4243:C 23.4971 
19 *488:56 *4142:A 23 
20 *488:4 *488:121 2.54786 
21 *488:121 *4209:A 23 
22 *488:121 *488:134 41.02 
23 *488:134 *4232:C 23 
*END

*D_NET *489 0.00263593
*CONN
*I *4615:A I *D sky130_fd_sc_hd__buf_2
*I *4552:A I *D sky130_fd_sc_hd__dlygate4sd3_1
*I *4347:Q O *D sky130_fd_sc_hd__dfxtp_1
*CAP
1 *4615:A 0
2 *4552:A 0
3 *4347:Q 0.000190173
4 *489:23 0.000903536
5 *489:8 0.00109371
6 *4613:A *489:23 0
7 *6:10 *489:23 0
8 *9:10 *489:8 1.55622e-05
9 *24:10 *489:23 0.000380342
10 *26:8 *489:23 0
11 *29:10 *489:23 5.26101e-05
12 *133:147 *489:23 0
13 *267:159 *489:23 0
14 *417:8 *489:23 0
15 *467:8 *489:23 0
*RES
1 *4347:Q *489:8 25.9 
2 *489:8 *4552:A 23 
3 *489:8 *489:23 45.9914 
4 *489:23 *4615:A 23 
*END

*D_NET *490 0.0034052
*CONN
*I *4195:A1 I *D sky130_fd_sc_hd__o211a_1
*I *4212:A1 I *D sky130_fd_sc_hd__o211a_1
*I *4560:X O *D sky130_fd_sc_hd__dlygate4sd3_1
*CAP
1 *4195:A1 0.000776845
2 *4212:A1 0.00014936
3 *4560:X 0.000251068
4 *490:10 0.000926204
5 *490:8 0.000251068
6 *4210:A *490:8 0
7 *4358:D *4195:A1 0.000234857
8 *4366:CLK *490:8 0
9 *4560:A *490:8 0
10 *47:8 *490:8 5.21024e-05
11 *97:128 *4195:A1 0.000238718
12 *267:130 *4195:A1 0.000186868
13 *362:219 *4195:A1 0.000197175
14 *479:10 *4195:A1 0.000140939
*RES
1 *4560:X *490:8 42.7229 
2 *490:8 *490:10 15 
3 *490:10 *4212:A1 25.5271 
4 *490:10 *4195:A1 41.7671 
*END

*D_NET *491 0.00766401
*CONN
*I *4198:B I *D sky130_fd_sc_hd__or2_1
*I *4181:A1 I *D sky130_fd_sc_hd__o211a_1
*I *4160:A1 I *D sky130_fd_sc_hd__o211a_1
*I *4561:X O *D sky130_fd_sc_hd__dlygate4sd3_1
*CAP
1 *4198:B 2.34823e-05
2 *4181:A1 0
3 *4160:A1 0
4 *4561:X 0.00015957
5 *491:24 0.0020435
6 *491:12 0.0025881
7 *491:6 0.000727652
8 *491:24 *497:10 4.77164e-06
9 *491:24 *498:8 2.3086e-05
10 led[3] *491:24 0.000405607
11 led[5] *491:24 0
12 *537:DIODE *491:6 5.56356e-05
13 *97:77 *491:12 0.000357126
14 *134:107 *491:24 0
15 *142:119 *491:24 2.75733e-06
16 *143:56 *491:24 0.000131134
17 *150:16 *491:24 0
18 *339:16 *491:24 0
19 *362:145 *491:12 4.46207e-05
20 *362:145 *491:24 2.77188e-05
21 *362:164 *491:12 0.000156061
22 *362:170 *491:12 0.000368862
23 *373:343 *491:12 5.27225e-05
24 *373:343 *491:24 0.000228205
25 *460:179 *491:12 0.000182826
26 *460:192 *491:12 4.34745e-05
27 *478:39 *491:24 3.70923e-05
*RES
1 *4561:X *491:6 25.0507 
2 *491:6 *491:12 28.7129 
3 *491:12 *491:24 42.7941 
4 *491:24 *4160:A1 23 
5 *491:12 *4181:A1 38 
6 *491:6 *4198:B 23.4971 
*END

*D_NET *492 0.00194145
*CONN
*I *4157:A I *D sky130_fd_sc_hd__or2_1
*I *4562:X O *D sky130_fd_sc_hd__dlygate4sd3_1
*CAP
1 *4157:A 0
2 *4562:X 0.000498322
3 *492:8 0.000498322
4 *4154:B1_N *492:8 4.04303e-05
5 *4562:A *492:8 0.000264564
6 *134:83 *492:8 5.50049e-05
7 *147:10 *492:8 0.000584804
*RES
1 *4562:X *492:8 33.9993 
2 *492:8 *4157:A 23 
*END

*D_NET *493 0.000523551
*CONN
*I *4158:B1 I *D sky130_fd_sc_hd__o211a_1
*I *4564:X O *D sky130_fd_sc_hd__dlygate4sd3_1
*CAP
1 *4158:B1 0
2 *4564:X 9.23942e-05
3 *493:10 9.23942e-05
4 *133:159 *493:10 5.50049e-05
5 *134:207 *493:10 0.000141879
6 *362:238 *493:10 0.000141879
*RES
1 *4564:X *493:10 40.5271 
2 *493:10 *4158:B1 38 
*END

*D_NET *494 0.000539907
*CONN
*I *4345:D I *D sky130_fd_sc_hd__dfxtp_1
*I *4565:X O *D sky130_fd_sc_hd__dlygate4sd3_1
*CAP
1 *4345:D 3.99404e-05
2 *4565:X 0.000104203
3 *494:8 0.000144144
4 *24:10 *494:8 0
5 *267:159 *4345:D 5.73018e-05
6 *435:12 *494:8 0.000194318
*RES
1 *4565:X *494:8 40.61 
2 *494:8 *4345:D 38.668 
*END

*D_NET *495 0.00958014
*CONN
*I *4194:B I *D sky130_fd_sc_hd__or2_1
*I *4156:A1 I *D sky130_fd_sc_hd__o211a_1
*I *4175:A1 I *D sky130_fd_sc_hd__o211a_1
*I *4566:X O *D sky130_fd_sc_hd__dlygate4sd3_1
*CAP
1 *4194:B 0.000320377
2 *4156:A1 0
3 *4175:A1 8.35529e-05
4 *4566:X 0.000303984
5 *495:33 0.000664576
6 *495:12 0.00205573
7 *495:10 0.00193196
8 *495:12 *505:8 0.000522885
9 *495:12 *507:10 9.28842e-05
10 *495:33 *514:20 0.000604553
11 *539:DIODE *495:12 4.98543e-05
12 *4156:A2 *495:33 4.56219e-05
13 *4175:B1 *4175:A1 5.79559e-05
14 *4338:B *495:33 3.60842e-05
15 *4359:CLK *4194:B 5.50049e-05
16 *4359:D *4194:B 0.000142068
17 *4549:A *495:10 2.93845e-05
18 *4586:A *495:33 0.000351513
19 *26:8 *495:12 0
20 *40:8 *495:10 0
21 *100:193 *495:33 0
22 *100:206 *495:12 0
23 *100:206 *495:33 0
24 *100:255 *495:12 0.000114159
25 *100:263 *495:12 0.000128739
26 *133:114 *495:12 0
27 *133:134 *495:12 0
28 *145:8 *495:12 0.000138727
29 *156:10 *495:12 4.23714e-05
30 *159:10 *495:12 6.6869e-05
31 *267:59 *495:12 0
32 *267:65 *495:12 0
33 *267:101 *495:12 0
34 *267:116 *495:10 0
35 *302:8 *495:10 0
36 *303:8 *495:10 4.08537e-05
37 *305:44 *495:12 0
38 *328:10 *495:12 0.000482051
39 *329:10 *495:12 0
40 *335:55 *495:33 3.4045e-05
41 *338:10 *495:33 6.9805e-05
42 *348:10 *4175:A1 2.21614e-05
43 *348:10 *495:12 4.56136e-05
44 *349:10 *495:12 0
45 *351:22 *495:33 0.000391384
46 *362:35 *4175:A1 2.1819e-05
47 *362:47 *495:33 0
48 *362:238 *495:12 0.000475728
49 *399:14 *495:33 6.08751e-05
50 *433:10 *495:12 4.03343e-05
51 *456:12 *4175:A1 5.66116e-05
*RES
1 *4566:X *495:10 43.3443 
2 *495:10 *495:12 30.9575 
3 *495:12 *4175:A1 40.3925 
4 *495:12 *495:33 31.2089 
5 *495:33 *4156:A1 23 
6 *495:10 *4194:B 44.5043 
*END

*D_NET *496 0.00134483
*CONN
*I *4159:A I *D sky130_fd_sc_hd__or2_1
*I *4567:X O *D sky130_fd_sc_hd__dlygate4sd3_1
*CAP
1 *4159:A 0
2 *4567:X 0.000285661
3 *496:10 0.000285661
4 *5:8 *496:10 0.000451402
5 *133:122 *496:10 0.000235825
6 *456:25 *496:10 8.62783e-05
*RES
1 *4567:X *496:10 46.2857 
2 *496:10 *4159:A 38 
*END

*D_NET *497 0.00107179
*CONN
*I *4160:B1 I *D sky130_fd_sc_hd__o211a_1
*I *4568:X O *D sky130_fd_sc_hd__dlygate4sd3_1
*CAP
1 *4160:B1 5.81595e-06
2 *4568:X 0.000246778
3 *497:10 0.000252594
4 *497:10 *498:8 0
5 *4160:A2 *4160:B1 1.09903e-05
6 *362:6 *497:10 3.7122e-06
7 *362:271 *497:10 1.59094e-05
8 *373:12 *497:10 0.000159661
9 *478:39 *497:10 0.000371555
10 *491:24 *497:10 4.77164e-06
*RES
1 *4568:X *497:10 43.6964 
2 *497:10 *4160:B1 38.1605 
*END

*D_NET *498 0.000804125
*CONN
*I *4346:D I *D sky130_fd_sc_hd__dfxtp_1
*I *4569:X O *D sky130_fd_sc_hd__dlygate4sd3_1
*CAP
1 *4346:D 2.17499e-05
2 *4569:X 0.000189849
3 *498:8 0.000211599
4 led[3] *498:8 0.000108681
5 *27:8 *498:8 8.85189e-05
6 *100:206 *498:8 0
7 *150:10 *4346:D 1.52322e-05
8 *339:16 *498:8 2.80532e-05
9 *373:12 *498:8 5.80963e-05
10 *478:26 *4346:D 5.92579e-05
11 *491:24 *498:8 2.3086e-05
12 *497:10 *498:8 0
*RES
1 *4569:X *498:8 42.3707 
2 *498:8 *4346:D 38.668 
*END

*D_NET *499 0.0023438
*CONN
*I *4176:A0 I *D sky130_fd_sc_hd__mux2_1
*I *4179:A1 I *D sky130_fd_sc_hd__mux2_1
*I *4570:X O *D sky130_fd_sc_hd__dlygate4sd3_1
*CAP
1 *4176:A0 6.69541e-05
2 *4179:A1 0.000347131
3 *4570:X 0.000293931
4 *499:12 0.000414085
5 *499:10 0.000293931
6 *7:16 *4176:A0 8.88657e-05
7 *7:16 *4179:A1 0.000201435
8 *133:93 *499:10 0.000138727
9 *133:108 *499:10 0.00031219
10 *142:32 *4179:A1 0.000183733
11 *153:34 *4179:A1 2.81406e-06
*RES
1 *4570:X *499:10 43.5929 
2 *499:10 *499:12 15 
3 *499:12 *4179:A1 27.9093 
4 *499:12 *4176:A0 24.0979 
*END

*D_NET *500 0.00244614
*CONN
*I *4530:A I *D sky130_fd_sc_hd__dlygate4sd3_1
*I *4616:A I *D sky130_fd_sc_hd__buf_2
*I *4348:Q O *D sky130_fd_sc_hd__dfxtp_1
*CAP
1 *4530:A 7.53257e-05
2 *4616:A 0.000168628
3 *4348:Q 0.000235946
4 *500:10 0.000479899
5 *4347:CLK *4616:A 3.22051e-05
6 *4347:D *4616:A 1.64354e-05
7 *9:10 *4616:A 0.000102389
8 *34:8 *500:10 0.000225393
9 *100:255 *4530:A 0.000126343
10 *100:255 *500:10 0.000194309
11 *133:147 *4530:A 6.57448e-05
12 *305:44 *4530:A 3.47781e-05
13 *305:44 *4616:A 0.000489954
14 *305:44 *500:10 0.000192077
15 *362:238 *4530:A 6.7177e-06
*RES
1 *4348:Q *500:10 43.1371 
2 *500:10 *4616:A 43.8829 
3 *500:10 *4530:A 40.2579 
*END

*D_NET *501 0.000924789
*CONN
*I *4180:B I *D sky130_fd_sc_hd__or2_1
*I *4571:X O *D sky130_fd_sc_hd__dlygate4sd3_1
*CAP
1 *4180:B 2.6514e-05
2 *4571:X 0.000225742
3 *501:8 0.000252256
4 *4163:A1 *4180:B 9.84794e-05
5 *4182:S *501:8 0
6 *142:100 *501:8 0.000109611
7 *143:31 *501:8 0
8 *153:21 *501:8 0
9 *331:25 *4180:B 9.58714e-05
10 *373:60 *501:8 0.000116314
*RES
1 *4571:X *501:8 42.3707 
2 *501:8 *4180:B 39.0979 
*END

*D_NET *502 0.000857951
*CONN
*I *4181:B1 I *D sky130_fd_sc_hd__o211a_1
*I *4572:X O *D sky130_fd_sc_hd__dlygate4sd3_1
*CAP
1 *4181:B1 0
2 *4572:X 0.000291988
3 *502:10 0.000291988
4 *4181:C1 *502:10 5.58473e-05
5 *362:137 *502:10 8.62783e-05
6 *373:343 *502:10 0.00013185
*RES
1 *4572:X *502:10 42.4329 
2 *502:10 *4181:B1 38 
*END

*D_NET *503 0.00130833
*CONN
*I *4354:D I *D sky130_fd_sc_hd__dfxtp_1
*I *4573:X O *D sky130_fd_sc_hd__dlygate4sd3_1
*CAP
1 *4354:D 0.000200806
2 *4573:X 5.03899e-05
3 *503:8 0.000251196
4 *4163:A1 *4354:D 0.000441814
5 *4354:CLK *4354:D 2.47564e-05
6 *142:119 *503:8 0.000169683
7 *363:12 *503:8 0.000169683
*RES
1 *4573:X *503:8 40.2579 
2 *503:8 *4354:D 42.9559 
*END

*D_NET *504 0.00135646
*CONN
*I *4173:A0 I *D sky130_fd_sc_hd__mux2_1
*I *4176:A1 I *D sky130_fd_sc_hd__mux2_1
*I *4575:X O *D sky130_fd_sc_hd__dlygate4sd3_1
*CAP
1 *4173:A0 0
2 *4176:A1 0
3 *4575:X 0
4 *504:25 0.000147598
5 *504:14 0.000272905
6 *504:4 0.000420504
7 *4176:S *504:14 1.24376e-05
8 *4614:A *504:14 5.56356e-05
9 *133:93 *504:14 0.000137788
10 *133:93 *504:25 0
11 *153:55 *504:14 2.30751e-05
12 *157:8 *504:14 0.000188927
13 *346:10 *504:25 9.75912e-05
*RES
1 *4575:X *504:4 23 
2 *504:4 *504:14 34.5779 
3 *504:14 *4176:A1 23 
4 *504:4 *504:25 32.9621 
5 *504:25 *4173:A0 23 
*END

*D_NET *505 0.00139914
*CONN
*I *4177:B I *D sky130_fd_sc_hd__or2_1
*I *4576:X O *D sky130_fd_sc_hd__dlygate4sd3_1
*CAP
1 *4177:B 2.95266e-05
2 *4576:X 0.000341527
3 *505:8 0.000371053
4 *34:8 *4177:B 3.42398e-05
5 *159:10 *4177:B 9.99061e-05
6 *267:65 *505:8 0
7 *329:10 *505:8 0
8 *330:10 *505:8 0
9 *495:12 *505:8 0.000522885
*RES
1 *4576:X *505:8 45.1879 
2 *505:8 *4177:B 39.0979 
*END

*D_NET *506 0.0012759
*CONN
*I *4178:B1 I *D sky130_fd_sc_hd__o211a_1
*I *4577:X O *D sky130_fd_sc_hd__dlygate4sd3_1
*CAP
1 *4178:B1 0
2 *4577:X 0.000436492
3 *506:10 0.000436492
4 *35:10 *506:10 0.000108106
5 *100:234 *506:10 0.000229801
6 *133:108 *506:10 4.236e-05
7 *143:56 *506:10 2.26497e-05
8 *267:65 *506:10 0
*RES
1 *4577:X *506:10 44.3386 
2 *506:10 *4178:B1 38 
*END

*D_NET *507 0.0013374
*CONN
*I *4353:D I *D sky130_fd_sc_hd__dfxtp_1
*I *4578:X O *D sky130_fd_sc_hd__dlygate4sd3_1
*CAP
1 *4353:D 4.62744e-06
2 *4578:X 0.000461271
3 *507:10 0.000465898
4 *4578:A *507:10 7.53384e-06
5 *100:234 *507:10 3.46673e-05
6 *133:108 *507:10 9.67842e-05
7 *133:114 *507:10 9.03979e-05
8 *149:6 *507:10 4.94192e-05
9 *267:65 *4353:D 1.64354e-05
10 *478:26 *4353:D 1.74843e-05
11 *495:12 *507:10 9.28842e-05
*RES
1 *4578:X *507:10 45.5193 
2 *507:10 *4353:D 38.1916 
*END

*D_NET *508 0.00134912
*CONN
*I *4187:A1 I *D sky130_fd_sc_hd__o211a_1
*I *4579:X O *D sky130_fd_sc_hd__dlygate4sd3_1
*CAP
1 *4187:A1 0
2 *4579:X 0.000418869
3 *508:10 0.000418869
4 *508:10 *509:8 0
5 *4203:C1 *508:10 2.29192e-05
6 *4363:CLK *508:10 0.000172678
7 *37:8 *508:10 4.58924e-05
8 *133:38 *508:10 0
9 *143:88 *508:10 1.05441e-05
10 *165:10 *508:10 8.06103e-05
11 *168:14 *508:10 9.28078e-06
12 *266:46 *508:10 0.000166532
13 *306:30 *508:10 0
14 *362:130 *508:10 0
15 *460:156 *508:10 2.92911e-06
*RES
1 *4579:X *508:10 46.5136 
2 *508:10 *4187:A1 38 
*END

*D_NET *509 0.000660185
*CONN
*I *4356:D I *D sky130_fd_sc_hd__dfxtp_1
*I *4580:X O *D sky130_fd_sc_hd__dlygate4sd3_1
*CAP
1 *4356:D 0.000109781
2 *4580:X 7.59234e-05
3 *509:8 0.000185704
4 *4163:A1 *4356:D 4.17736e-05
5 *306:24 *4356:D 0.000191382
6 *362:130 *509:8 5.56203e-05
7 *508:10 *509:8 0
*RES
1 *4580:X *509:8 39.5536 
2 *509:8 *4356:D 40.5737 
*END

*D_NET *510 0.00322403
*CONN
*I *4248:A1 I *D sky130_fd_sc_hd__o21ai_1
*I *4249:A1 I *D sky130_fd_sc_hd__a21oi_1
*I *4250:A1 I *D sky130_fd_sc_hd__a21o_1
*I *4105:B I *D sky130_fd_sc_hd__and2_1
*I *4581:X O *D sky130_fd_sc_hd__dlygate4sd3_1
*CAP
1 *4248:A1 0
2 *4249:A1 0
3 *4250:A1 0
4 *4105:B 0.000227043
5 *4581:X 2.01521e-05
6 *510:20 0.000352185
7 *510:14 0.000648396
8 *510:6 0.000543407
9 *510:14 *512:10 0
10 *4105:A *4105:B 3.91386e-05
11 *4122:B1_N *510:14 9.48381e-06
12 *4250:A2 *4105:B 0.00014196
13 *4250:B1 *4105:B 0.000340884
14 *4381:CLK *510:14 0
15 *4582:A *510:14 2.30292e-05
16 *121:10 *510:6 9.84851e-05
17 *200:27 *510:20 0
18 *202:10 *510:14 0
19 *279:66 *510:6 9.84851e-05
20 *279:66 *510:14 0
21 *280:12 *4105:B 0.000238617
22 *480:6 *4105:B 8.6949e-05
23 *480:8 *4105:B 0.000355817
*RES
1 *4581:X *510:6 24.0979 
2 *510:6 *510:14 39.135 
3 *510:14 *510:20 31.9057 
4 *510:20 *4105:B 32.2179 
5 *510:20 *4250:A1 23 
6 *510:14 *4249:A1 23 
7 *510:6 *4248:A1 23 
*END

*D_NET *511 0.00667351
*CONN
*I *4617:A I *D sky130_fd_sc_hd__buf_2
*I *4596:A I *D sky130_fd_sc_hd__dlygate4sd3_1
*I *4349:Q O *D sky130_fd_sc_hd__dfxtp_1
*CAP
1 *4617:A 0.000119391
2 *4596:A 0
3 *4349:Q 0.000290029
4 *511:19 0.00298927
5 *511:10 0.00315991
6 led[6] *511:19 0
7 *4166:A2 *511:10 2.96154e-05
8 *4166:B1 *511:10 1.24376e-05
9 *30:8 *511:10 7.28526e-05
10 *437:8 *511:10 0
11 *438:8 *511:10 0
*RES
1 *4349:Q *511:10 43.2407 
2 *511:10 *4596:A 38 
3 *511:10 *511:19 56.1357 
4 *511:19 *4617:A 40.0507 
*END

*D_NET *512 0.000389362
*CONN
*I *4381:D I *D sky130_fd_sc_hd__dfxtp_1
*I *4582:X O *D sky130_fd_sc_hd__dlygate4sd3_1
*CAP
1 *4381:D 1.58638e-05
2 *4582:X 0.000155871
3 *512:10 0.000171735
4 *4381:CLK *512:10 4.58924e-05
5 *140:38 *512:10 0
6 *510:14 *512:10 0
*RES
1 *4582:X *512:10 40.8793 
2 *512:10 *4381:D 38.1916 
*END

*D_NET *513 0.00719075
*CONN
*I *4155:A I *D sky130_fd_sc_hd__or2_1
*I *4583:X O *D sky130_fd_sc_hd__dlygate4sd3_1
*CAP
1 *4155:A 0.000409514
2 *4583:X 0.00044331
3 *513:14 0.00166422
4 *513:8 0.00169801
5 *513:14 *514:20 0.00110898
6 *4101:A *513:8 0.000135547
7 *4339:D *4155:A 0.000124697
8 *4351:CLK *513:8 0.000114177
9 *133:122 *4155:A 5.3304e-05
10 *134:119 *4155:A 0.000139647
11 *146:20 *513:8 0.000159258
12 *259:42 *513:14 0.000607156
13 *265:57 *513:8 3.98859e-05
14 *265:89 *4155:A 6.17437e-06
15 *265:119 *4155:A 0.000154237
16 *265:130 *4155:A 0.000139346
17 *335:10 *513:8 5.36457e-05
18 *335:55 *4155:A 4.0773e-05
19 *336:10 *513:8 0
20 *364:10 *513:8 9.88678e-05
*RES
1 *4583:X *513:8 47.6529 
2 *513:8 *513:14 49.2021 
3 *513:14 *4155:A 46.7207 
*END

*D_NET *514 0.0068072
*CONN
*I *4156:B1 I *D sky130_fd_sc_hd__o211a_1
*I *4584:X O *D sky130_fd_sc_hd__dlygate4sd3_1
*CAP
1 *4156:B1 0
2 *4584:X 0.000215342
3 *514:20 0.00126401
4 *514:8 0.00147935
5 *514:20 *515:10 5.50106e-05
6 *4156:A2 *514:20 2.47094e-05
7 *4342:D *514:20 8.68427e-05
8 *4351:CLK *514:20 0
9 *4571:A *514:8 9.47033e-05
10 *100:117 *514:20 6.33511e-05
11 *100:123 *514:20 6.07611e-06
12 *100:174 *514:20 0.00013118
13 *100:189 *514:20 1.7992e-05
14 *102:10 *514:20 0.000163904
15 *142:10 *514:20 0.000521827
16 *143:24 *514:20 0
17 *155:10 *514:8 0.000264559
18 *259:42 *514:20 0.000182832
19 *259:53 *514:20 0
20 *265:51 *514:20 0.000224605
21 *338:10 *514:20 4.09254e-05
22 *360:75 *514:20 1.02562e-05
23 *362:107 *514:20 0
24 *362:117 *514:8 4.75206e-05
25 *373:18 *514:20 0.00010018
26 *373:60 *514:8 9.84794e-05
27 *495:33 *514:20 0.000604553
28 *513:14 *514:20 0.00110898
*RES
1 *4584:X *514:8 43.3857 
2 *514:8 *514:20 48.3914 
3 *514:20 *4156:B1 23 
*END

*D_NET *515 0.00160681
*CONN
*I *4344:D I *D sky130_fd_sc_hd__dfxtp_1
*I *4586:X O *D sky130_fd_sc_hd__dlygate4sd3_1
*CAP
1 *4344:D 2.62568e-05
2 *4586:X 0.000333784
3 *515:10 0.000360041
4 *12:9 *515:10 7.23898e-05
5 *15:10 *515:10 0.000132831
6 *339:16 *515:10 0.000519902
7 *362:35 *4344:D 2.27575e-05
8 *373:18 *515:10 0
9 *456:12 *4344:D 8.38361e-05
10 *514:20 *515:10 5.50106e-05
*RES
1 *4586:X *515:10 45.8093 
2 *515:10 *4344:D 38.9373 
*END

*D_NET *516 0.00330414
*CONN
*I *4129:D I *D sky130_fd_sc_hd__or4_1
*I *4319:C I *D sky130_fd_sc_hd__and4_1
*I *4316:B I *D sky130_fd_sc_hd__and3_1
*I *4313:A I *D sky130_fd_sc_hd__and2_1
*I *4314:A1 I *D sky130_fd_sc_hd__o21ai_1
*I *4587:X O *D sky130_fd_sc_hd__dlygate4sd3_1
*CAP
1 *4129:D 0.000112825
2 *4319:C 0
3 *4316:B 0.0002206
4 *4313:A 0
5 *4314:A1 8.68028e-05
6 *4587:X 0
7 *516:45 0.000134362
8 *516:34 0.00037786
9 *516:14 0.000233411
10 *516:6 0.000282331
11 *4316:B *4319:B 3.70553e-06
12 *4129:C *4129:D 9.6254e-05
13 *4319:D *4316:B 1.39317e-05
14 *4320:A1 *4129:D 1.22803e-05
15 *4320:A1 *516:34 7.2094e-05
16 *4320:A1 *516:45 4.42688e-05
17 *4410:CLK *4314:A1 1.56762e-05
18 *4410:CLK *516:14 0.000402801
19 *86:8 *4314:A1 0.000225393
20 *86:8 *516:14 3.61695e-05
21 *242:29 *4316:B 1.89178e-05
22 *242:48 *4129:D 2.08324e-05
23 *242:48 *516:14 0.000332516
24 *242:48 *516:34 0.000159064
25 *242:48 *516:45 4.78793e-05
26 *244:10 *516:14 4.08641e-05
27 *244:10 *516:34 2.60152e-05
28 *245:31 *4316:B 9.84851e-05
29 *247:8 *4129:D 2.79064e-05
30 *247:12 *4129:D 5.50049e-05
31 *247:60 *4129:D 6.7177e-06
32 *261:46 *4314:A1 9.91701e-05
33 *261:52 *516:14 0
*RES
1 *4587:X *516:6 38 
2 *516:6 *516:14 21.8357 
3 *516:14 *4314:A1 26.0243 
4 *516:14 *4313:A 23 
5 *516:6 *516:34 3.72857 
6 *516:34 *4316:B 41.0036 
7 *516:34 *516:45 1.20143 
8 *516:45 *4319:C 38 
9 *516:45 *4129:D 40.8793 
*END

*D_NET *517 0.00137006
*CONN
*I *4315:B I *D sky130_fd_sc_hd__nor2_1
*I *4588:X O *D sky130_fd_sc_hd__dlygate4sd3_1
*CAP
1 *4315:B 0
2 *4588:X 0.00018937
3 *517:10 0.00018937
4 *4317:A2 *517:10 0.000228909
5 *4320:A1 *517:10 0.000187129
6 *144:148 *517:10 6.51843e-05
7 *144:156 *517:10 0.000217729
8 *243:18 *517:10 0.000292363
*RES
1 *4588:X *517:10 45.1671 
2 *517:10 *4315:B 38 
*END

*D_NET *518 0.000597248
*CONN
*I *4409:D I *D sky130_fd_sc_hd__dfxtp_1
*I *4589:X O *D sky130_fd_sc_hd__dlygate4sd3_1
*CAP
1 *4409:D 0.000168842
2 *4589:X 0.000129782
3 *518:8 0.000298624
4 *261:52 *518:8 0
5 *322:10 *518:8 0
*RES
1 *4589:X *518:8 40.2579 
2 *518:8 *4409:D 41.0502 
*END

*D_NET *519 0.00334051
*CONN
*I *4128:A I *D sky130_fd_sc_hd__nand2_1
*I *4319:B I *D sky130_fd_sc_hd__and4_1
*I *4316:A I *D sky130_fd_sc_hd__and3_1
*I *4317:A1 I *D sky130_fd_sc_hd__o21ai_1
*I *4590:X O *D sky130_fd_sc_hd__dlygate4sd3_1
*CAP
1 *4128:A 0.000259102
2 *4319:B 0.000322428
3 *4316:A 0
4 *4317:A1 0.000181099
5 *4590:X 0
6 *519:23 0.00038862
7 *519:19 0.000488644
8 *519:4 0.000344449
9 *4129:A *4128:A 4.6318e-06
10 *4316:B *4319:B 3.70553e-06
11 *4317:A2 *4317:A1 0.000200687
12 *4319:D *4319:B 5.50049e-05
13 *128:10 *4128:A 0.000267173
14 *144:60 *4317:A1 0
15 *144:78 *4128:A 5.3656e-05
16 *144:78 *519:19 1.34354e-05
17 *242:10 *4317:A1 9.30054e-05
18 *242:10 *519:19 0.000138718
19 *242:27 *4319:B 6.86731e-05
20 *242:27 *519:23 0.000141954
21 *242:29 *4319:B 0.000175265
22 *242:48 *519:19 0
23 *245:12 *519:19 0
24 *246:10 *4317:A1 0.000140259
25 *247:8 *519:19 0
26 *247:60 *4128:A 0
*RES
1 *4590:X *519:4 23 
2 *519:4 *4317:A1 28.3029 
3 *519:4 *519:19 17.61 
4 *519:19 *519:23 16.5743 
5 *519:23 *4316:A 23 
6 *519:23 *4319:B 27.93 
7 *519:19 *4128:A 43.2614 
*END

*D_NET *520 0.00027502
*CONN
*I *4318:B I *D sky130_fd_sc_hd__nor2_1
*I *4591:X O *D sky130_fd_sc_hd__dlygate4sd3_1
*CAP
1 *4318:B 8.78953e-05
2 *4591:X 8.78953e-05
3 *4591:A *4318:B 2.4754e-05
4 *87:10 *4318:B 4.04598e-06
5 *239:20 *4318:B 1.37232e-05
6 *245:31 *4318:B 5.67058e-05
*RES
1 *4591:X *4318:B 48.0714 
*END

*D_NET *521 0.000839344
*CONN
*I *4410:D I *D sky130_fd_sc_hd__dfxtp_1
*I *4592:X O *D sky130_fd_sc_hd__dlygate4sd3_1
*CAP
1 *4410:D 0
2 *4592:X 0.000419672
3 *521:6 0.000419672
*RES
1 *4592:X *521:6 29.8616 
2 *521:6 *4410:D 23 
*END
