*SPEF "ieee 1481-1999"
*DESIGN "impl_top"
*DATE "02:22:40 Monday May 11, 2026"
*VENDOR "The OpenROAD Project"
*PROGRAM "OpenROAD"
*VERSION "edf00dff99f6c40d67a30c0e22a8191c5d2ed9d6"
*DESIGN_FLOW "NAME_SCOPE LOCAL" "PIN_CAP NONE"
*DIVIDER /
*DELIMITER :
*BUS_DELIMITER []
*T_UNIT 1 NS
*C_UNIT 1 PF
*R_UNIT 1 OHM
*L_UNIT 1 HENRY

*NAME_MAP
*3 clk
*4 led[0]
*5 led[1]
*6 led[2]
*7 led[3]
*8 led[4]
*9 led[5]
*10 led[6]
*11 led[7]
*12 sw_0
*13 sw_1
*14 uart_rxd
*15 uart_txd
*16 _000_
*17 _001_
*18 _002_
*19 _003_
*20 _004_
*21 _005_
*22 _006_
*23 _007_
*24 _008_
*25 _009_
*26 _010_
*27 _011_
*28 _012_
*29 _013_
*30 _014_
*31 _015_
*32 _016_
*33 _017_
*34 _018_
*35 _019_
*36 _020_
*37 _021_
*38 _022_
*39 _023_
*40 _024_
*41 _025_
*42 _026_
*43 _027_
*44 _028_
*45 _029_
*46 _030_
*47 _031_
*48 _032_
*49 _033_
*50 _034_
*51 _035_
*52 _036_
*53 _037_
*54 _038_
*55 _039_
*56 _040_
*57 _041_
*58 _042_
*59 _043_
*60 _044_
*61 _045_
*62 _046_
*63 _047_
*64 _048_
*65 _049_
*66 _050_
*67 _051_
*68 _052_
*69 _053_
*70 _054_
*71 _055_
*72 _056_
*73 _057_
*74 _058_
*75 _059_
*76 _060_
*77 _061_
*78 _062_
*79 _063_
*80 _064_
*81 _065_
*82 _066_
*83 _067_
*84 _068_
*85 _069_
*86 _070_
*87 _071_
*88 _072_
*89 _073_
*90 _074_
*91 _075_
*92 _076_
*93 _077_
*94 _078_
*95 _079_
*96 _080_
*97 _081_
*98 _082_
*99 _083_
*100 _084_
*101 _085_
*102 _086_
*103 _087_
*104 _088_
*105 _089_
*106 _090_
*107 _091_
*108 _092_
*109 _093_
*110 _094_
*111 _095_
*112 _096_
*113 _097_
*114 _098_
*115 _099_
*116 _100_
*117 _101_
*118 _102_
*119 _103_
*120 _104_
*121 _105_
*122 _106_
*123 _107_
*124 _108_
*125 _109_
*126 _110_
*127 _111_
*128 _112_
*129 _113_
*130 _114_
*131 _115_
*132 _116_
*133 _117_
*134 _118_
*135 _119_
*136 _120_
*137 _121_
*138 _122_
*139 _123_
*140 _124_
*141 _125_
*142 _126_
*143 _127_
*144 _128_
*145 _129_
*146 _130_
*147 _131_
*148 _132_
*149 _133_
*150 _134_
*151 _135_
*152 _136_
*153 _137_
*154 _138_
*155 _139_
*156 _140_
*157 _141_
*158 _142_
*159 _143_
*160 _144_
*161 _145_
*162 _146_
*163 _147_
*164 _148_
*165 _149_
*166 _150_
*167 _151_
*168 _152_
*169 _153_
*170 _154_
*171 _155_
*172 _156_
*173 _157_
*174 _158_
*175 _159_
*176 _160_
*177 _161_
*178 _162_
*179 _163_
*180 _164_
*181 _165_
*182 _166_
*183 _167_
*184 _168_
*185 _169_
*186 _170_
*187 _171_
*188 _172_
*189 _173_
*190 _174_
*191 _175_
*192 _176_
*193 _177_
*194 _178_
*195 _179_
*196 _180_
*197 _181_
*198 _182_
*199 _183_
*200 _184_
*201 _185_
*202 _186_
*203 _187_
*204 _188_
*205 _189_
*206 _190_
*207 _191_
*208 _192_
*209 _193_
*210 _194_
*211 _195_
*212 _196_
*213 _197_
*214 _198_
*215 _199_
*216 _200_
*217 _201_
*218 _202_
*219 _203_
*220 _204_
*221 _205_
*222 _206_
*223 _207_
*224 _208_
*225 _209_
*226 _210_
*227 _211_
*228 _212_
*229 _213_
*230 _214_
*231 _215_
*232 _216_
*233 _217_
*234 _218_
*235 _219_
*236 _220_
*237 _221_
*238 _222_
*239 _223_
*240 _224_
*241 _225_
*242 _226_
*243 _227_
*244 _228_
*245 _229_
*246 _230_
*247 _231_
*248 _232_
*249 _233_
*250 _234_
*251 _235_
*252 _236_
*253 _237_
*254 _238_
*255 _239_
*256 _240_
*257 _241_
*258 _242_
*259 clknet_0_clk
*260 clknet_3_0__leaf_clk
*261 clknet_3_1__leaf_clk
*262 clknet_3_2__leaf_clk
*263 clknet_3_3__leaf_clk
*264 clknet_3_4__leaf_clk
*265 clknet_3_5__leaf_clk
*266 clknet_3_6__leaf_clk
*267 clknet_3_7__leaf_clk
*268 i_uart_rx\.bit_counter\[0\]
*269 i_uart_rx\.bit_counter\[1\]
*270 i_uart_rx\.bit_counter\[2\]
*271 i_uart_rx\.bit_counter\[3\]
*272 i_uart_rx\.bit_sample
*273 i_uart_rx\.cycle_counter\[0\]
*274 i_uart_rx\.cycle_counter\[10\]
*275 i_uart_rx\.cycle_counter\[11\]
*276 i_uart_rx\.cycle_counter\[12\]
*277 i_uart_rx\.cycle_counter\[13\]
*278 i_uart_rx\.cycle_counter\[1\]
*279 i_uart_rx\.cycle_counter\[2\]
*280 i_uart_rx\.cycle_counter\[3\]
*281 i_uart_rx\.cycle_counter\[4\]
*282 i_uart_rx\.cycle_counter\[5\]
*283 i_uart_rx\.cycle_counter\[6\]
*284 i_uart_rx\.cycle_counter\[7\]
*285 i_uart_rx\.cycle_counter\[8\]
*286 i_uart_rx\.cycle_counter\[9\]
*287 i_uart_rx\.fsm_state\[0\]
*288 i_uart_rx\.fsm_state\[1\]
*289 i_uart_rx\.fsm_state\[2\]
*290 i_uart_rx\.fsm_state\[3\]
*291 i_uart_rx\.recieved_data\[0\]
*292 i_uart_rx\.recieved_data\[1\]
*293 i_uart_rx\.recieved_data\[2\]
*294 i_uart_rx\.recieved_data\[3\]
*295 i_uart_rx\.recieved_data\[4\]
*296 i_uart_rx\.recieved_data\[5\]
*297 i_uart_rx\.recieved_data\[6\]
*298 i_uart_rx\.recieved_data\[7\]
*299 i_uart_rx\.rxd_reg
*300 i_uart_rx\.rxd_reg_0
*301 i_uart_rx\.uart_rx_data\[0\]
*302 i_uart_rx\.uart_rx_data\[1\]
*303 i_uart_rx\.uart_rx_data\[2\]
*304 i_uart_rx\.uart_rx_data\[3\]
*305 i_uart_rx\.uart_rx_data\[4\]
*306 i_uart_rx\.uart_rx_data\[5\]
*307 i_uart_rx\.uart_rx_data\[6\]
*308 i_uart_rx\.uart_rx_data\[7\]
*309 i_uart_tx\.bit_counter\[0\]
*310 i_uart_tx\.bit_counter\[1\]
*311 i_uart_tx\.bit_counter\[2\]
*312 i_uart_tx\.bit_counter\[3\]
*313 i_uart_tx\.cycle_counter\[0\]
*314 i_uart_tx\.cycle_counter\[10\]
*315 i_uart_tx\.cycle_counter\[11\]
*316 i_uart_tx\.cycle_counter\[12\]
*317 i_uart_tx\.cycle_counter\[13\]
*318 i_uart_tx\.cycle_counter\[1\]
*319 i_uart_tx\.cycle_counter\[2\]
*320 i_uart_tx\.cycle_counter\[3\]
*321 i_uart_tx\.cycle_counter\[4\]
*322 i_uart_tx\.cycle_counter\[5\]
*323 i_uart_tx\.cycle_counter\[6\]
*324 i_uart_tx\.cycle_counter\[7\]
*325 i_uart_tx\.cycle_counter\[8\]
*326 i_uart_tx\.cycle_counter\[9\]
*327 i_uart_tx\.data_to_send\[0\]
*328 i_uart_tx\.data_to_send\[1\]
*329 i_uart_tx\.data_to_send\[2\]
*330 i_uart_tx\.data_to_send\[3\]
*331 i_uart_tx\.data_to_send\[4\]
*332 i_uart_tx\.data_to_send\[5\]
*333 i_uart_tx\.data_to_send\[6\]
*334 i_uart_tx\.data_to_send\[7\]
*335 i_uart_tx\.fsm_state\[0\]
*336 i_uart_tx\.fsm_state\[1\]
*337 i_uart_tx\.fsm_state\[2\]
*338 i_uart_tx\.fsm_state\[3\]
*339 net1
*340 net10
*341 net100
*342 net101
*343 net102
*344 net103
*345 net104
*346 net105
*347 net106
*348 net107
*349 net108
*350 net109
*351 net11
*352 net110
*353 net111
*354 net112
*355 net113
*356 net114
*357 net115
*358 net116
*359 net117
*360 net118
*361 net119
*362 net12
*363 net120
*364 net121
*365 net122
*366 net123
*367 net124
*368 net125
*369 net126
*370 net127
*371 net128
*372 net129
*373 net13
*374 net130
*375 net131
*376 net132
*377 net133
*378 net134
*379 net135
*380 net136
*381 net137
*382 net138
*383 net139
*384 net14
*385 net140
*386 net141
*387 net142
*388 net143
*389 net144
*390 net145
*391 net146
*392 net147
*393 net148
*394 net149
*395 net15
*396 net150
*397 net151
*398 net152
*399 net153
*400 net154
*401 net155
*402 net156
*403 net157
*404 net158
*405 net159
*406 net16
*407 net160
*408 net161
*409 net162
*410 net163
*411 net164
*412 net165
*413 net166
*414 net167
*415 net168
*416 net169
*417 net17
*418 net170
*419 net171
*420 net172
*421 net173
*422 net174
*423 net175
*424 net176
*425 net177
*426 net178
*427 net179
*428 net18
*429 net180
*430 net181
*431 net182
*432 net183
*433 net19
*434 net2
*435 net20
*436 net21
*437 net22
*438 net23
*439 net24
*440 net25
*441 net26
*442 net27
*443 net28
*444 net29
*445 net3
*446 net30
*447 net31
*448 net32
*449 net33
*450 net34
*451 net35
*452 net36
*453 net37
*454 net38
*455 net39
*456 net4
*457 net40
*458 net41
*459 net42
*460 net43
*461 net44
*462 net45
*463 net46
*464 net47
*465 net48
*466 net49
*467 net5
*468 net50
*469 net51
*470 net52
*471 net53
*472 net54
*473 net55
*474 net56
*475 net57
*476 net58
*477 net59
*478 net6
*479 net60
*480 net61
*481 net62
*482 net63
*483 net64
*484 net65
*485 net66
*486 net67
*487 net68
*488 net69
*489 net7
*490 net70
*491 net71
*492 net72
*493 net73
*494 net74
*495 net75
*496 net76
*497 net77
*498 net78
*499 net79
*500 net8
*501 net80
*502 net81
*503 net82
*504 net83
*505 net84
*506 net85
*507 net86
*508 net87
*509 net88
*510 net89
*511 net9
*512 net90
*513 net91
*514 net92
*515 net93
*516 net94
*517 net95
*518 net96
*519 net97
*520 net98
*521 net99
*522 ANTENNA_1
*523 ANTENNA__247__A
*524 ANTENNA__247__Y
*525 ANTENNA__271__C1
*526 ANTENNA__283__X
*527 ANTENNA__286__A2
*528 ANTENNA__286__C1
*529 ANTENNA__289__B
*530 ANTENNA__290__A2
*531 ANTENNA__291__A
*532 ANTENNA__292__A1
*533 ANTENNA__293__A
*534 ANTENNA__297__A
*535 ANTENNA__298__A1
*536 ANTENNA__299__A2
*537 ANTENNA__300__B1
*538 ANTENNA__303__A2
*539 ANTENNA__305__A2
*540 ANTENNA__307__A2
*541 ANTENNA__308__B1
*542 ANTENNA__309__A2
*543 ANTENNA__310__B1
*544 ANTENNA__311__A2
*545 ANTENNA__312__B1
*546 ANTENNA__313__A2
*547 ANTENNA__314__B1
*548 ANTENNA__315__A2
*549 ANTENNA__336__C1
*550 ANTENNA__337__B
*551 ANTENNA__348__B1
*552 ANTENNA__350__B1
*553 ANTENNA__352__B1
*554 ANTENNA__354__B1
*555 ANTENNA__358__B
*556 ANTENNA__388__C1
*557 ANTENNA__429__A
*558 ANTENNA__430__A
*559 ANTENNA__431__A2
*560 ANTENNA__432__B1
*561 ANTENNA__485__A
*562 ANTENNA_clkbuf_0_clk_A
*563 ANTENNA_clkbuf_0_clk_X
*564 ANTENNA_clkbuf_3_0__f_clk_A
*565 ANTENNA_clkbuf_3_1__f_clk_A
*566 ANTENNA_clkbuf_3_2__f_clk_A
*567 ANTENNA_clkbuf_3_3__f_clk_A
*568 ANTENNA_clkbuf_3_4__f_clk_A
*569 ANTENNA_clkbuf_3_5__f_clk_A
*570 ANTENNA_clkbuf_3_6__f_clk_A
*571 ANTENNA_clkbuf_3_7__f_clk_A
*572 ANTENNA_fanout12_A
*573 ANTENNA_fanout13_X
*574 ANTENNA_input1_A
*575 ANTENNA_input2_A
*576 FILLER_0_109
*577 FILLER_0_111
*578 FILLER_0_113
*579 FILLER_0_125
*580 FILLER_0_137
*581 FILLER_0_139
*582 FILLER_0_141
*583 FILLER_0_15
*584 FILLER_0_153
*585 FILLER_0_165
*586 FILLER_0_167
*587 FILLER_0_169
*588 FILLER_0_181
*589 FILLER_0_189
*590 FILLER_0_191
*591 FILLER_0_197
*592 FILLER_0_209
*593 FILLER_0_221
*594 FILLER_0_223
*595 FILLER_0_225
*596 FILLER_0_237
*597 FILLER_0_249
*598 FILLER_0_251
*599 FILLER_0_253
*600 FILLER_0_265
*601 FILLER_0_27
*602 FILLER_0_277
*603 FILLER_0_279
*604 FILLER_0_281
*605 FILLER_0_29
*606 FILLER_0_293
*607 FILLER_0_3
*608 FILLER_0_305
*609 FILLER_0_307
*610 FILLER_0_309
*611 FILLER_0_321
*612 FILLER_0_333
*613 FILLER_0_335
*614 FILLER_0_337
*615 FILLER_0_349
*616 FILLER_0_361
*617 FILLER_0_363
*618 FILLER_0_365
*619 FILLER_0_377
*620 FILLER_0_389
*621 FILLER_0_391
*622 FILLER_0_393
*623 FILLER_0_405
*624 FILLER_0_41
*625 FILLER_0_53
*626 FILLER_0_55
*627 FILLER_0_57
*628 FILLER_0_69
*629 FILLER_0_81
*630 FILLER_0_83
*631 FILLER_0_85
*632 FILLER_0_97
*633 FILLER_10_109
*634 FILLER_10_121
*635 FILLER_10_133
*636 FILLER_10_137
*637 FILLER_10_139
*638 FILLER_10_141
*639 FILLER_10_15
*640 FILLER_10_153
*641 FILLER_10_165
*642 FILLER_10_177
*643 FILLER_10_189
*644 FILLER_10_193
*645 FILLER_10_195
*646 FILLER_10_197
*647 FILLER_10_209
*648 FILLER_10_221
*649 FILLER_10_233
*650 FILLER_10_245
*651 FILLER_10_249
*652 FILLER_10_251
*653 FILLER_10_253
*654 FILLER_10_265
*655 FILLER_10_27
*656 FILLER_10_277
*657 FILLER_10_289
*658 FILLER_10_29
*659 FILLER_10_3
*660 FILLER_10_301
*661 FILLER_10_305
*662 FILLER_10_307
*663 FILLER_10_309
*664 FILLER_10_321
*665 FILLER_10_333
*666 FILLER_10_345
*667 FILLER_10_357
*668 FILLER_10_361
*669 FILLER_10_363
*670 FILLER_10_365
*671 FILLER_10_377
*672 FILLER_10_389
*673 FILLER_10_401
*674 FILLER_10_405
*675 FILLER_10_41
*676 FILLER_10_53
*677 FILLER_10_65
*678 FILLER_10_77
*679 FILLER_10_81
*680 FILLER_10_83
*681 FILLER_10_85
*682 FILLER_10_97
*683 FILLER_11_105
*684 FILLER_11_109
*685 FILLER_11_111
*686 FILLER_11_113
*687 FILLER_11_125
*688 FILLER_11_137
*689 FILLER_11_149
*690 FILLER_11_15
*691 FILLER_11_161
*692 FILLER_11_165
*693 FILLER_11_167
*694 FILLER_11_169
*695 FILLER_11_181
*696 FILLER_11_193
*697 FILLER_11_205
*698 FILLER_11_217
*699 FILLER_11_221
*700 FILLER_11_223
*701 FILLER_11_225
*702 FILLER_11_237
*703 FILLER_11_249
*704 FILLER_11_261
*705 FILLER_11_27
*706 FILLER_11_273
*707 FILLER_11_277
*708 FILLER_11_279
*709 FILLER_11_281
*710 FILLER_11_293
*711 FILLER_11_3
*712 FILLER_11_305
*713 FILLER_11_317
*714 FILLER_11_329
*715 FILLER_11_333
*716 FILLER_11_335
*717 FILLER_11_337
*718 FILLER_11_349
*719 FILLER_11_361
*720 FILLER_11_373
*721 FILLER_11_385
*722 FILLER_11_389
*723 FILLER_11_39
*724 FILLER_11_391
*725 FILLER_11_393
*726 FILLER_11_405
*727 FILLER_11_51
*728 FILLER_11_55
*729 FILLER_11_57
*730 FILLER_11_69
*731 FILLER_11_81
*732 FILLER_11_93
*733 FILLER_12_109
*734 FILLER_12_121
*735 FILLER_12_133
*736 FILLER_12_137
*737 FILLER_12_139
*738 FILLER_12_141
*739 FILLER_12_15
*740 FILLER_12_153
*741 FILLER_12_165
*742 FILLER_12_177
*743 FILLER_12_189
*744 FILLER_12_193
*745 FILLER_12_195
*746 FILLER_12_197
*747 FILLER_12_209
*748 FILLER_12_221
*749 FILLER_12_233
*750 FILLER_12_245
*751 FILLER_12_249
*752 FILLER_12_251
*753 FILLER_12_253
*754 FILLER_12_265
*755 FILLER_12_27
*756 FILLER_12_277
*757 FILLER_12_289
*758 FILLER_12_29
*759 FILLER_12_3
*760 FILLER_12_301
*761 FILLER_12_305
*762 FILLER_12_307
*763 FILLER_12_309
*764 FILLER_12_321
*765 FILLER_12_333
*766 FILLER_12_345
*767 FILLER_12_357
*768 FILLER_12_361
*769 FILLER_12_363
*770 FILLER_12_365
*771 FILLER_12_377
*772 FILLER_12_389
*773 FILLER_12_401
*774 FILLER_12_405
*775 FILLER_12_41
*776 FILLER_12_53
*777 FILLER_12_65
*778 FILLER_12_77
*779 FILLER_12_81
*780 FILLER_12_83
*781 FILLER_12_85
*782 FILLER_12_97
*783 FILLER_13_105
*784 FILLER_13_109
*785 FILLER_13_111
*786 FILLER_13_113
*787 FILLER_13_125
*788 FILLER_13_137
*789 FILLER_13_149
*790 FILLER_13_15
*791 FILLER_13_161
*792 FILLER_13_165
*793 FILLER_13_167
*794 FILLER_13_169
*795 FILLER_13_181
*796 FILLER_13_193
*797 FILLER_13_205
*798 FILLER_13_217
*799 FILLER_13_221
*800 FILLER_13_223
*801 FILLER_13_225
*802 FILLER_13_237
*803 FILLER_13_249
*804 FILLER_13_261
*805 FILLER_13_27
*806 FILLER_13_273
*807 FILLER_13_277
*808 FILLER_13_279
*809 FILLER_13_281
*810 FILLER_13_293
*811 FILLER_13_3
*812 FILLER_13_305
*813 FILLER_13_317
*814 FILLER_13_329
*815 FILLER_13_333
*816 FILLER_13_335
*817 FILLER_13_337
*818 FILLER_13_349
*819 FILLER_13_361
*820 FILLER_13_373
*821 FILLER_13_385
*822 FILLER_13_389
*823 FILLER_13_39
*824 FILLER_13_391
*825 FILLER_13_393
*826 FILLER_13_405
*827 FILLER_13_51
*828 FILLER_13_55
*829 FILLER_13_57
*830 FILLER_13_69
*831 FILLER_13_81
*832 FILLER_13_93
*833 FILLER_14_109
*834 FILLER_14_121
*835 FILLER_14_133
*836 FILLER_14_137
*837 FILLER_14_139
*838 FILLER_14_141
*839 FILLER_14_15
*840 FILLER_14_153
*841 FILLER_14_165
*842 FILLER_14_177
*843 FILLER_14_189
*844 FILLER_14_193
*845 FILLER_14_195
*846 FILLER_14_197
*847 FILLER_14_209
*848 FILLER_14_221
*849 FILLER_14_233
*850 FILLER_14_245
*851 FILLER_14_249
*852 FILLER_14_251
*853 FILLER_14_253
*854 FILLER_14_265
*855 FILLER_14_27
*856 FILLER_14_277
*857 FILLER_14_289
*858 FILLER_14_29
*859 FILLER_14_3
*860 FILLER_14_301
*861 FILLER_14_305
*862 FILLER_14_307
*863 FILLER_14_309
*864 FILLER_14_321
*865 FILLER_14_333
*866 FILLER_14_345
*867 FILLER_14_357
*868 FILLER_14_361
*869 FILLER_14_363
*870 FILLER_14_365
*871 FILLER_14_377
*872 FILLER_14_389
*873 FILLER_14_401
*874 FILLER_14_405
*875 FILLER_14_41
*876 FILLER_14_53
*877 FILLER_14_65
*878 FILLER_14_77
*879 FILLER_14_81
*880 FILLER_14_83
*881 FILLER_14_85
*882 FILLER_14_97
*883 FILLER_15_105
*884 FILLER_15_109
*885 FILLER_15_111
*886 FILLER_15_113
*887 FILLER_15_125
*888 FILLER_15_137
*889 FILLER_15_149
*890 FILLER_15_15
*891 FILLER_15_161
*892 FILLER_15_165
*893 FILLER_15_167
*894 FILLER_15_169
*895 FILLER_15_181
*896 FILLER_15_193
*897 FILLER_15_205
*898 FILLER_15_217
*899 FILLER_15_221
*900 FILLER_15_223
*901 FILLER_15_225
*902 FILLER_15_237
*903 FILLER_15_249
*904 FILLER_15_261
*905 FILLER_15_27
*906 FILLER_15_273
*907 FILLER_15_277
*908 FILLER_15_279
*909 FILLER_15_281
*910 FILLER_15_293
*911 FILLER_15_3
*912 FILLER_15_305
*913 FILLER_15_317
*914 FILLER_15_329
*915 FILLER_15_333
*916 FILLER_15_335
*917 FILLER_15_337
*918 FILLER_15_349
*919 FILLER_15_361
*920 FILLER_15_373
*921 FILLER_15_385
*922 FILLER_15_389
*923 FILLER_15_39
*924 FILLER_15_391
*925 FILLER_15_393
*926 FILLER_15_405
*927 FILLER_15_51
*928 FILLER_15_55
*929 FILLER_15_57
*930 FILLER_15_69
*931 FILLER_15_81
*932 FILLER_15_93
*933 FILLER_16_109
*934 FILLER_16_121
*935 FILLER_16_133
*936 FILLER_16_137
*937 FILLER_16_139
*938 FILLER_16_141
*939 FILLER_16_15
*940 FILLER_16_153
*941 FILLER_16_165
*942 FILLER_16_177
*943 FILLER_16_189
*944 FILLER_16_193
*945 FILLER_16_195
*946 FILLER_16_197
*947 FILLER_16_209
*948 FILLER_16_221
*949 FILLER_16_233
*950 FILLER_16_245
*951 FILLER_16_249
*952 FILLER_16_251
*953 FILLER_16_253
*954 FILLER_16_265
*955 FILLER_16_27
*956 FILLER_16_277
*957 FILLER_16_289
*958 FILLER_16_29
*959 FILLER_16_3
*960 FILLER_16_301
*961 FILLER_16_305
*962 FILLER_16_307
*963 FILLER_16_309
*964 FILLER_16_321
*965 FILLER_16_333
*966 FILLER_16_345
*967 FILLER_16_357
*968 FILLER_16_361
*969 FILLER_16_363
*970 FILLER_16_365
*971 FILLER_16_377
*972 FILLER_16_389
*973 FILLER_16_401
*974 FILLER_16_405
*975 FILLER_16_41
*976 FILLER_16_53
*977 FILLER_16_65
*978 FILLER_16_77
*979 FILLER_16_81
*980 FILLER_16_83
*981 FILLER_16_85
*982 FILLER_16_97
*983 FILLER_17_105
*984 FILLER_17_109
*985 FILLER_17_111
*986 FILLER_17_113
*987 FILLER_17_125
*988 FILLER_17_137
*989 FILLER_17_149
*990 FILLER_17_15
*991 FILLER_17_161
*992 FILLER_17_165
*993 FILLER_17_167
*994 FILLER_17_169
*995 FILLER_17_181
*996 FILLER_17_193
*997 FILLER_17_205
*998 FILLER_17_217
*999 FILLER_17_221
*1000 FILLER_17_223
*1001 FILLER_17_225
*1002 FILLER_17_237
*1003 FILLER_17_249
*1004 FILLER_17_261
*1005 FILLER_17_27
*1006 FILLER_17_273
*1007 FILLER_17_277
*1008 FILLER_17_279
*1009 FILLER_17_281
*1010 FILLER_17_285
*1011 FILLER_17_287
*1012 FILLER_17_3
*1013 FILLER_17_304
*1014 FILLER_17_311
*1015 FILLER_17_323
*1016 FILLER_17_335
*1017 FILLER_17_337
*1018 FILLER_17_349
*1019 FILLER_17_361
*1020 FILLER_17_373
*1021 FILLER_17_385
*1022 FILLER_17_389
*1023 FILLER_17_39
*1024 FILLER_17_391
*1025 FILLER_17_393
*1026 FILLER_17_405
*1027 FILLER_17_51
*1028 FILLER_17_55
*1029 FILLER_17_57
*1030 FILLER_17_69
*1031 FILLER_17_81
*1032 FILLER_17_93
*1033 FILLER_18_109
*1034 FILLER_18_121
*1035 FILLER_18_133
*1036 FILLER_18_137
*1037 FILLER_18_139
*1038 FILLER_18_141
*1039 FILLER_18_15
*1040 FILLER_18_153
*1041 FILLER_18_165
*1042 FILLER_18_177
*1043 FILLER_18_189
*1044 FILLER_18_193
*1045 FILLER_18_195
*1046 FILLER_18_197
*1047 FILLER_18_209
*1048 FILLER_18_221
*1049 FILLER_18_233
*1050 FILLER_18_245
*1051 FILLER_18_249
*1052 FILLER_18_251
*1053 FILLER_18_27
*1054 FILLER_18_280
*1055 FILLER_18_29
*1056 FILLER_18_3
*1057 FILLER_18_329
*1058 FILLER_18_341
*1059 FILLER_18_353
*1060 FILLER_18_361
*1061 FILLER_18_363
*1062 FILLER_18_365
*1063 FILLER_18_377
*1064 FILLER_18_386
*1065 FILLER_18_398
*1066 FILLER_18_406
*1067 FILLER_18_41
*1068 FILLER_18_53
*1069 FILLER_18_65
*1070 FILLER_18_77
*1071 FILLER_18_81
*1072 FILLER_18_83
*1073 FILLER_18_85
*1074 FILLER_18_97
*1075 FILLER_19_105
*1076 FILLER_19_109
*1077 FILLER_19_111
*1078 FILLER_19_113
*1079 FILLER_19_125
*1080 FILLER_19_137
*1081 FILLER_19_149
*1082 FILLER_19_15
*1083 FILLER_19_161
*1084 FILLER_19_165
*1085 FILLER_19_167
*1086 FILLER_19_169
*1087 FILLER_19_181
*1088 FILLER_19_193
*1089 FILLER_19_205
*1090 FILLER_19_217
*1091 FILLER_19_221
*1092 FILLER_19_223
*1093 FILLER_19_225
*1094 FILLER_19_237
*1095 FILLER_19_241
*1096 FILLER_19_263
*1097 FILLER_19_27
*1098 FILLER_19_289
*1099 FILLER_19_3
*1100 FILLER_19_315
*1101 FILLER_19_332
*1102 FILLER_19_337
*1103 FILLER_19_349
*1104 FILLER_19_361
*1105 FILLER_19_369
*1106 FILLER_19_380
*1107 FILLER_19_39
*1108 FILLER_19_390
*1109 FILLER_19_395
*1110 FILLER_19_404
*1111 FILLER_19_406
*1112 FILLER_19_51
*1113 FILLER_19_55
*1114 FILLER_19_57
*1115 FILLER_19_69
*1116 FILLER_19_81
*1117 FILLER_19_93
*1118 FILLER_1_105
*1119 FILLER_1_109
*1120 FILLER_1_111
*1121 FILLER_1_113
*1122 FILLER_1_125
*1123 FILLER_1_137
*1124 FILLER_1_149
*1125 FILLER_1_15
*1126 FILLER_1_161
*1127 FILLER_1_165
*1128 FILLER_1_167
*1129 FILLER_1_169
*1130 FILLER_1_181
*1131 FILLER_1_193
*1132 FILLER_1_205
*1133 FILLER_1_217
*1134 FILLER_1_221
*1135 FILLER_1_223
*1136 FILLER_1_225
*1137 FILLER_1_237
*1138 FILLER_1_249
*1139 FILLER_1_261
*1140 FILLER_1_27
*1141 FILLER_1_273
*1142 FILLER_1_277
*1143 FILLER_1_279
*1144 FILLER_1_281
*1145 FILLER_1_293
*1146 FILLER_1_3
*1147 FILLER_1_305
*1148 FILLER_1_317
*1149 FILLER_1_329
*1150 FILLER_1_333
*1151 FILLER_1_335
*1152 FILLER_1_337
*1153 FILLER_1_349
*1154 FILLER_1_361
*1155 FILLER_1_373
*1156 FILLER_1_385
*1157 FILLER_1_389
*1158 FILLER_1_39
*1159 FILLER_1_391
*1160 FILLER_1_393
*1161 FILLER_1_405
*1162 FILLER_1_51
*1163 FILLER_1_55
*1164 FILLER_1_57
*1165 FILLER_1_69
*1166 FILLER_1_81
*1167 FILLER_1_93
*1168 FILLER_20_109
*1169 FILLER_20_121
*1170 FILLER_20_133
*1171 FILLER_20_137
*1172 FILLER_20_139
*1173 FILLER_20_141
*1174 FILLER_20_15
*1175 FILLER_20_153
*1176 FILLER_20_165
*1177 FILLER_20_177
*1178 FILLER_20_189
*1179 FILLER_20_193
*1180 FILLER_20_195
*1181 FILLER_20_197
*1182 FILLER_20_209
*1183 FILLER_20_221
*1184 FILLER_20_233
*1185 FILLER_20_245
*1186 FILLER_20_247
*1187 FILLER_20_253
*1188 FILLER_20_27
*1189 FILLER_20_271
*1190 FILLER_20_285
*1191 FILLER_20_29
*1192 FILLER_20_3
*1193 FILLER_20_305
*1194 FILLER_20_307
*1195 FILLER_20_333
*1196 FILLER_20_341
*1197 FILLER_20_358
*1198 FILLER_20_362
*1199 FILLER_20_404
*1200 FILLER_20_406
*1201 FILLER_20_41
*1202 FILLER_20_53
*1203 FILLER_20_65
*1204 FILLER_20_77
*1205 FILLER_20_81
*1206 FILLER_20_83
*1207 FILLER_20_85
*1208 FILLER_20_97
*1209 FILLER_21_105
*1210 FILLER_21_109
*1211 FILLER_21_111
*1212 FILLER_21_113
*1213 FILLER_21_125
*1214 FILLER_21_137
*1215 FILLER_21_149
*1216 FILLER_21_15
*1217 FILLER_21_161
*1218 FILLER_21_165
*1219 FILLER_21_167
*1220 FILLER_21_169
*1221 FILLER_21_181
*1222 FILLER_21_193
*1223 FILLER_21_205
*1224 FILLER_21_217
*1225 FILLER_21_221
*1226 FILLER_21_223
*1227 FILLER_21_225
*1228 FILLER_21_233
*1229 FILLER_21_250
*1230 FILLER_21_27
*1231 FILLER_21_271
*1232 FILLER_21_297
*1233 FILLER_21_3
*1234 FILLER_21_315
*1235 FILLER_21_327
*1236 FILLER_21_335
*1237 FILLER_21_337
*1238 FILLER_21_355
*1239 FILLER_21_370
*1240 FILLER_21_372
*1241 FILLER_21_383
*1242 FILLER_21_39
*1243 FILLER_21_406
*1244 FILLER_21_51
*1245 FILLER_21_55
*1246 FILLER_21_57
*1247 FILLER_21_69
*1248 FILLER_21_81
*1249 FILLER_21_93
*1250 FILLER_22_109
*1251 FILLER_22_121
*1252 FILLER_22_133
*1253 FILLER_22_137
*1254 FILLER_22_139
*1255 FILLER_22_141
*1256 FILLER_22_15
*1257 FILLER_22_153
*1258 FILLER_22_165
*1259 FILLER_22_177
*1260 FILLER_22_189
*1261 FILLER_22_193
*1262 FILLER_22_195
*1263 FILLER_22_197
*1264 FILLER_22_209
*1265 FILLER_22_221
*1266 FILLER_22_233
*1267 FILLER_22_237
*1268 FILLER_22_239
*1269 FILLER_22_251
*1270 FILLER_22_267
*1271 FILLER_22_27
*1272 FILLER_22_29
*1273 FILLER_22_290
*1274 FILLER_22_3
*1275 FILLER_22_314
*1276 FILLER_22_316
*1277 FILLER_22_333
*1278 FILLER_22_335
*1279 FILLER_22_360
*1280 FILLER_22_390
*1281 FILLER_22_41
*1282 FILLER_22_53
*1283 FILLER_22_65
*1284 FILLER_22_77
*1285 FILLER_22_81
*1286 FILLER_22_83
*1287 FILLER_22_85
*1288 FILLER_22_97
*1289 FILLER_23_105
*1290 FILLER_23_109
*1291 FILLER_23_111
*1292 FILLER_23_113
*1293 FILLER_23_125
*1294 FILLER_23_137
*1295 FILLER_23_149
*1296 FILLER_23_15
*1297 FILLER_23_161
*1298 FILLER_23_165
*1299 FILLER_23_167
*1300 FILLER_23_169
*1301 FILLER_23_181
*1302 FILLER_23_193
*1303 FILLER_23_205
*1304 FILLER_23_217
*1305 FILLER_23_221
*1306 FILLER_23_223
*1307 FILLER_23_225
*1308 FILLER_23_27
*1309 FILLER_23_277
*1310 FILLER_23_279
*1311 FILLER_23_281
*1312 FILLER_23_285
*1313 FILLER_23_287
*1314 FILLER_23_296
*1315 FILLER_23_3
*1316 FILLER_23_308
*1317 FILLER_23_312
*1318 FILLER_23_317
*1319 FILLER_23_319
*1320 FILLER_23_333
*1321 FILLER_23_335
*1322 FILLER_23_355
*1323 FILLER_23_364
*1324 FILLER_23_372
*1325 FILLER_23_39
*1326 FILLER_23_406
*1327 FILLER_23_51
*1328 FILLER_23_55
*1329 FILLER_23_57
*1330 FILLER_23_69
*1331 FILLER_23_81
*1332 FILLER_23_93
*1333 FILLER_24_109
*1334 FILLER_24_121
*1335 FILLER_24_133
*1336 FILLER_24_137
*1337 FILLER_24_139
*1338 FILLER_24_141
*1339 FILLER_24_15
*1340 FILLER_24_153
*1341 FILLER_24_165
*1342 FILLER_24_177
*1343 FILLER_24_189
*1344 FILLER_24_193
*1345 FILLER_24_195
*1346 FILLER_24_197
*1347 FILLER_24_209
*1348 FILLER_24_221
*1349 FILLER_24_229
*1350 FILLER_24_253
*1351 FILLER_24_27
*1352 FILLER_24_271
*1353 FILLER_24_280
*1354 FILLER_24_282
*1355 FILLER_24_29
*1356 FILLER_24_299
*1357 FILLER_24_3
*1358 FILLER_24_307
*1359 FILLER_24_309
*1360 FILLER_24_327
*1361 FILLER_24_336
*1362 FILLER_24_338
*1363 FILLER_24_363
*1364 FILLER_24_368
*1365 FILLER_24_41
*1366 FILLER_24_53
*1367 FILLER_24_65
*1368 FILLER_24_77
*1369 FILLER_24_81
*1370 FILLER_24_83
*1371 FILLER_24_85
*1372 FILLER_24_97
*1373 FILLER_25_105
*1374 FILLER_25_109
*1375 FILLER_25_111
*1376 FILLER_25_113
*1377 FILLER_25_125
*1378 FILLER_25_137
*1379 FILLER_25_149
*1380 FILLER_25_15
*1381 FILLER_25_161
*1382 FILLER_25_165
*1383 FILLER_25_167
*1384 FILLER_25_169
*1385 FILLER_25_181
*1386 FILLER_25_206
*1387 FILLER_25_218
*1388 FILLER_25_222
*1389 FILLER_25_225
*1390 FILLER_25_237
*1391 FILLER_25_241
*1392 FILLER_25_251
*1393 FILLER_25_255
*1394 FILLER_25_257
*1395 FILLER_25_266
*1396 FILLER_25_27
*1397 FILLER_25_297
*1398 FILLER_25_3
*1399 FILLER_25_363
*1400 FILLER_25_383
*1401 FILLER_25_39
*1402 FILLER_25_51
*1403 FILLER_25_55
*1404 FILLER_25_57
*1405 FILLER_25_69
*1406 FILLER_25_81
*1407 FILLER_25_93
*1408 FILLER_26_109
*1409 FILLER_26_121
*1410 FILLER_26_133
*1411 FILLER_26_137
*1412 FILLER_26_139
*1413 FILLER_26_141
*1414 FILLER_26_15
*1415 FILLER_26_153
*1416 FILLER_26_165
*1417 FILLER_26_177
*1418 FILLER_26_185
*1419 FILLER_26_187
*1420 FILLER_26_197
*1421 FILLER_26_199
*1422 FILLER_26_208
*1423 FILLER_26_220
*1424 FILLER_26_232
*1425 FILLER_26_240
*1426 FILLER_26_248
*1427 FILLER_26_267
*1428 FILLER_26_27
*1429 FILLER_26_276
*1430 FILLER_26_29
*1431 FILLER_26_3
*1432 FILLER_26_305
*1433 FILLER_26_307
*1434 FILLER_26_333
*1435 FILLER_26_345
*1436 FILLER_26_406
*1437 FILLER_26_41
*1438 FILLER_26_53
*1439 FILLER_26_65
*1440 FILLER_26_77
*1441 FILLER_26_81
*1442 FILLER_26_83
*1443 FILLER_26_85
*1444 FILLER_26_97
*1445 FILLER_27_105
*1446 FILLER_27_109
*1447 FILLER_27_111
*1448 FILLER_27_113
*1449 FILLER_27_125
*1450 FILLER_27_137
*1451 FILLER_27_149
*1452 FILLER_27_15
*1453 FILLER_27_161
*1454 FILLER_27_165
*1455 FILLER_27_167
*1456 FILLER_27_169
*1457 FILLER_27_181
*1458 FILLER_27_193
*1459 FILLER_27_205
*1460 FILLER_27_218
*1461 FILLER_27_222
*1462 FILLER_27_228
*1463 FILLER_27_237
*1464 FILLER_27_241
*1465 FILLER_27_27
*1466 FILLER_27_278
*1467 FILLER_27_289
*1468 FILLER_27_291
*1469 FILLER_27_3
*1470 FILLER_27_300
*1471 FILLER_27_319
*1472 FILLER_27_323
*1473 FILLER_27_335
*1474 FILLER_27_337
*1475 FILLER_27_353
*1476 FILLER_27_357
*1477 FILLER_27_39
*1478 FILLER_27_398
*1479 FILLER_27_51
*1480 FILLER_27_55
*1481 FILLER_27_57
*1482 FILLER_27_69
*1483 FILLER_27_81
*1484 FILLER_27_93
*1485 FILLER_28_109
*1486 FILLER_28_121
*1487 FILLER_28_133
*1488 FILLER_28_137
*1489 FILLER_28_139
*1490 FILLER_28_141
*1491 FILLER_28_15
*1492 FILLER_28_153
*1493 FILLER_28_165
*1494 FILLER_28_177
*1495 FILLER_28_205
*1496 FILLER_28_230
*1497 FILLER_28_234
*1498 FILLER_28_244
*1499 FILLER_28_248
*1500 FILLER_28_261
*1501 FILLER_28_27
*1502 FILLER_28_270
*1503 FILLER_28_272
*1504 FILLER_28_29
*1505 FILLER_28_297
*1506 FILLER_28_3
*1507 FILLER_28_307
*1508 FILLER_28_336
*1509 FILLER_28_344
*1510 FILLER_28_382
*1511 FILLER_28_41
*1512 FILLER_28_53
*1513 FILLER_28_65
*1514 FILLER_28_77
*1515 FILLER_28_81
*1516 FILLER_28_83
*1517 FILLER_28_85
*1518 FILLER_28_97
*1519 FILLER_29_105
*1520 FILLER_29_109
*1521 FILLER_29_111
*1522 FILLER_29_113
*1523 FILLER_29_125
*1524 FILLER_29_137
*1525 FILLER_29_149
*1526 FILLER_29_161
*1527 FILLER_29_165
*1528 FILLER_29_167
*1529 FILLER_29_20
*1530 FILLER_29_201
*1531 FILLER_29_210
*1532 FILLER_29_212
*1533 FILLER_29_223
*1534 FILLER_29_293
*1535 FILLER_29_32
*1536 FILLER_29_391
*1537 FILLER_29_44
*1538 FILLER_29_57
*1539 FILLER_29_69
*1540 FILLER_29_8
*1541 FILLER_29_81
*1542 FILLER_29_93
*1543 FILLER_2_109
*1544 FILLER_2_121
*1545 FILLER_2_133
*1546 FILLER_2_137
*1547 FILLER_2_139
*1548 FILLER_2_141
*1549 FILLER_2_15
*1550 FILLER_2_153
*1551 FILLER_2_165
*1552 FILLER_2_177
*1553 FILLER_2_189
*1554 FILLER_2_193
*1555 FILLER_2_195
*1556 FILLER_2_197
*1557 FILLER_2_209
*1558 FILLER_2_221
*1559 FILLER_2_233
*1560 FILLER_2_245
*1561 FILLER_2_249
*1562 FILLER_2_251
*1563 FILLER_2_253
*1564 FILLER_2_265
*1565 FILLER_2_27
*1566 FILLER_2_277
*1567 FILLER_2_289
*1568 FILLER_2_29
*1569 FILLER_2_3
*1570 FILLER_2_301
*1571 FILLER_2_305
*1572 FILLER_2_307
*1573 FILLER_2_309
*1574 FILLER_2_321
*1575 FILLER_2_333
*1576 FILLER_2_345
*1577 FILLER_2_357
*1578 FILLER_2_361
*1579 FILLER_2_363
*1580 FILLER_2_365
*1581 FILLER_2_377
*1582 FILLER_2_389
*1583 FILLER_2_401
*1584 FILLER_2_405
*1585 FILLER_2_41
*1586 FILLER_2_53
*1587 FILLER_2_65
*1588 FILLER_2_77
*1589 FILLER_2_81
*1590 FILLER_2_83
*1591 FILLER_2_85
*1592 FILLER_2_97
*1593 FILLER_30_109
*1594 FILLER_30_121
*1595 FILLER_30_133
*1596 FILLER_30_137
*1597 FILLER_30_139
*1598 FILLER_30_141
*1599 FILLER_30_15
*1600 FILLER_30_153
*1601 FILLER_30_165
*1602 FILLER_30_194
*1603 FILLER_30_242
*1604 FILLER_30_250
*1605 FILLER_30_269
*1606 FILLER_30_27
*1607 FILLER_30_284
*1608 FILLER_30_29
*1609 FILLER_30_296
*1610 FILLER_30_3
*1611 FILLER_30_326
*1612 FILLER_30_330
*1613 FILLER_30_336
*1614 FILLER_30_340
*1615 FILLER_30_357
*1616 FILLER_30_363
*1617 FILLER_30_41
*1618 FILLER_30_53
*1619 FILLER_30_65
*1620 FILLER_30_77
*1621 FILLER_30_81
*1622 FILLER_30_83
*1623 FILLER_30_85
*1624 FILLER_30_97
*1625 FILLER_31_105
*1626 FILLER_31_109
*1627 FILLER_31_111
*1628 FILLER_31_113
*1629 FILLER_31_125
*1630 FILLER_31_137
*1631 FILLER_31_149
*1632 FILLER_31_15
*1633 FILLER_31_161
*1634 FILLER_31_163
*1635 FILLER_31_167
*1636 FILLER_31_169
*1637 FILLER_31_177
*1638 FILLER_31_179
*1639 FILLER_31_196
*1640 FILLER_31_200
*1641 FILLER_31_221
*1642 FILLER_31_223
*1643 FILLER_31_225
*1644 FILLER_31_233
*1645 FILLER_31_245
*1646 FILLER_31_257
*1647 FILLER_31_261
*1648 FILLER_31_27
*1649 FILLER_31_279
*1650 FILLER_31_3
*1651 FILLER_31_313
*1652 FILLER_31_317
*1653 FILLER_31_332
*1654 FILLER_31_346
*1655 FILLER_31_348
*1656 FILLER_31_389
*1657 FILLER_31_39
*1658 FILLER_31_51
*1659 FILLER_31_55
*1660 FILLER_31_57
*1661 FILLER_31_69
*1662 FILLER_31_81
*1663 FILLER_31_93
*1664 FILLER_32_109
*1665 FILLER_32_121
*1666 FILLER_32_133
*1667 FILLER_32_137
*1668 FILLER_32_139
*1669 FILLER_32_141
*1670 FILLER_32_15
*1671 FILLER_32_153
*1672 FILLER_32_157
*1673 FILLER_32_159
*1674 FILLER_32_168
*1675 FILLER_32_193
*1676 FILLER_32_195
*1677 FILLER_32_212
*1678 FILLER_32_224
*1679 FILLER_32_226
*1680 FILLER_32_239
*1681 FILLER_32_251
*1682 FILLER_32_253
*1683 FILLER_32_27
*1684 FILLER_32_270
*1685 FILLER_32_29
*1686 FILLER_32_3
*1687 FILLER_32_302
*1688 FILLER_32_317
*1689 FILLER_32_389
*1690 FILLER_32_406
*1691 FILLER_32_41
*1692 FILLER_32_53
*1693 FILLER_32_65
*1694 FILLER_32_77
*1695 FILLER_32_81
*1696 FILLER_32_83
*1697 FILLER_32_85
*1698 FILLER_32_97
*1699 FILLER_33_105
*1700 FILLER_33_109
*1701 FILLER_33_111
*1702 FILLER_33_113
*1703 FILLER_33_125
*1704 FILLER_33_137
*1705 FILLER_33_149
*1706 FILLER_33_15
*1707 FILLER_33_151
*1708 FILLER_33_177
*1709 FILLER_33_190
*1710 FILLER_33_202
*1711 FILLER_33_204
*1712 FILLER_33_222
*1713 FILLER_33_225
*1714 FILLER_33_27
*1715 FILLER_33_298
*1716 FILLER_33_3
*1717 FILLER_33_326
*1718 FILLER_33_39
*1719 FILLER_33_391
*1720 FILLER_33_51
*1721 FILLER_33_55
*1722 FILLER_33_57
*1723 FILLER_33_69
*1724 FILLER_33_81
*1725 FILLER_33_93
*1726 FILLER_34_109
*1727 FILLER_34_121
*1728 FILLER_34_133
*1729 FILLER_34_137
*1730 FILLER_34_139
*1731 FILLER_34_141
*1732 FILLER_34_15
*1733 FILLER_34_153
*1734 FILLER_34_165
*1735 FILLER_34_184
*1736 FILLER_34_186
*1737 FILLER_34_195
*1738 FILLER_34_197
*1739 FILLER_34_201
*1740 FILLER_34_219
*1741 FILLER_34_235
*1742 FILLER_34_244
*1743 FILLER_34_248
*1744 FILLER_34_269
*1745 FILLER_34_27
*1746 FILLER_34_275
*1747 FILLER_34_29
*1748 FILLER_34_294
*1749 FILLER_34_298
*1750 FILLER_34_3
*1751 FILLER_34_327
*1752 FILLER_34_352
*1753 FILLER_34_363
*1754 FILLER_34_365
*1755 FILLER_34_389
*1756 FILLER_34_406
*1757 FILLER_34_41
*1758 FILLER_34_53
*1759 FILLER_34_65
*1760 FILLER_34_77
*1761 FILLER_34_81
*1762 FILLER_34_83
*1763 FILLER_34_85
*1764 FILLER_34_97
*1765 FILLER_35_105
*1766 FILLER_35_109
*1767 FILLER_35_111
*1768 FILLER_35_113
*1769 FILLER_35_125
*1770 FILLER_35_137
*1771 FILLER_35_145
*1772 FILLER_35_147
*1773 FILLER_35_15
*1774 FILLER_35_174
*1775 FILLER_35_176
*1776 FILLER_35_201
*1777 FILLER_35_223
*1778 FILLER_35_225
*1779 FILLER_35_233
*1780 FILLER_35_243
*1781 FILLER_35_27
*1782 FILLER_35_3
*1783 FILLER_35_302
*1784 FILLER_35_306
*1785 FILLER_35_308
*1786 FILLER_35_335
*1787 FILLER_35_337
*1788 FILLER_35_370
*1789 FILLER_35_39
*1790 FILLER_35_391
*1791 FILLER_35_51
*1792 FILLER_35_55
*1793 FILLER_35_57
*1794 FILLER_35_69
*1795 FILLER_35_81
*1796 FILLER_35_93
*1797 FILLER_36_109
*1798 FILLER_36_121
*1799 FILLER_36_133
*1800 FILLER_36_137
*1801 FILLER_36_139
*1802 FILLER_36_141
*1803 FILLER_36_15
*1804 FILLER_36_153
*1805 FILLER_36_165
*1806 FILLER_36_183
*1807 FILLER_36_194
*1808 FILLER_36_206
*1809 FILLER_36_210
*1810 FILLER_36_224
*1811 FILLER_36_228
*1812 FILLER_36_230
*1813 FILLER_36_239
*1814 FILLER_36_251
*1815 FILLER_36_27
*1816 FILLER_36_277
*1817 FILLER_36_29
*1818 FILLER_36_3
*1819 FILLER_36_302
*1820 FILLER_36_309
*1821 FILLER_36_311
*1822 FILLER_36_360
*1823 FILLER_36_41
*1824 FILLER_36_53
*1825 FILLER_36_65
*1826 FILLER_36_77
*1827 FILLER_36_81
*1828 FILLER_36_83
*1829 FILLER_36_85
*1830 FILLER_36_97
*1831 FILLER_37_105
*1832 FILLER_37_109
*1833 FILLER_37_111
*1834 FILLER_37_113
*1835 FILLER_37_125
*1836 FILLER_37_137
*1837 FILLER_37_149
*1838 FILLER_37_15
*1839 FILLER_37_164
*1840 FILLER_37_186
*1841 FILLER_37_198
*1842 FILLER_37_202
*1843 FILLER_37_208
*1844 FILLER_37_212
*1845 FILLER_37_221
*1846 FILLER_37_223
*1847 FILLER_37_225
*1848 FILLER_37_243
*1849 FILLER_37_254
*1850 FILLER_37_256
*1851 FILLER_37_27
*1852 FILLER_37_273
*1853 FILLER_37_277
*1854 FILLER_37_279
*1855 FILLER_37_281
*1856 FILLER_37_283
*1857 FILLER_37_3
*1858 FILLER_37_353
*1859 FILLER_37_355
*1860 FILLER_37_375
*1861 FILLER_37_39
*1862 FILLER_37_393
*1863 FILLER_37_51
*1864 FILLER_37_55
*1865 FILLER_37_57
*1866 FILLER_37_69
*1867 FILLER_37_81
*1868 FILLER_37_93
*1869 FILLER_38_109
*1870 FILLER_38_121
*1871 FILLER_38_133
*1872 FILLER_38_137
*1873 FILLER_38_139
*1874 FILLER_38_141
*1875 FILLER_38_15
*1876 FILLER_38_153
*1877 FILLER_38_155
*1878 FILLER_38_191
*1879 FILLER_38_197
*1880 FILLER_38_248
*1881 FILLER_38_27
*1882 FILLER_38_273
*1883 FILLER_38_277
*1884 FILLER_38_279
*1885 FILLER_38_286
*1886 FILLER_38_29
*1887 FILLER_38_298
*1888 FILLER_38_3
*1889 FILLER_38_307
*1890 FILLER_38_309
*1891 FILLER_38_313
*1892 FILLER_38_405
*1893 FILLER_38_41
*1894 FILLER_38_53
*1895 FILLER_38_65
*1896 FILLER_38_77
*1897 FILLER_38_81
*1898 FILLER_38_83
*1899 FILLER_38_85
*1900 FILLER_38_97
*1901 FILLER_39_105
*1902 FILLER_39_109
*1903 FILLER_39_111
*1904 FILLER_39_113
*1905 FILLER_39_125
*1906 FILLER_39_137
*1907 FILLER_39_149
*1908 FILLER_39_15
*1909 FILLER_39_161
*1910 FILLER_39_165
*1911 FILLER_39_167
*1912 FILLER_39_169
*1913 FILLER_39_171
*1914 FILLER_39_237
*1915 FILLER_39_27
*1916 FILLER_39_274
*1917 FILLER_39_278
*1918 FILLER_39_294
*1919 FILLER_39_3
*1920 FILLER_39_306
*1921 FILLER_39_319
*1922 FILLER_39_321
*1923 FILLER_39_330
*1924 FILLER_39_334
*1925 FILLER_39_345
*1926 FILLER_39_349
*1927 FILLER_39_355
*1928 FILLER_39_359
*1929 FILLER_39_370
*1930 FILLER_39_39
*1931 FILLER_39_390
*1932 FILLER_39_401
*1933 FILLER_39_51
*1934 FILLER_39_55
*1935 FILLER_39_57
*1936 FILLER_39_69
*1937 FILLER_39_81
*1938 FILLER_39_93
*1939 FILLER_3_105
*1940 FILLER_3_109
*1941 FILLER_3_111
*1942 FILLER_3_113
*1943 FILLER_3_125
*1944 FILLER_3_137
*1945 FILLER_3_149
*1946 FILLER_3_15
*1947 FILLER_3_161
*1948 FILLER_3_165
*1949 FILLER_3_167
*1950 FILLER_3_169
*1951 FILLER_3_181
*1952 FILLER_3_193
*1953 FILLER_3_205
*1954 FILLER_3_217
*1955 FILLER_3_221
*1956 FILLER_3_223
*1957 FILLER_3_225
*1958 FILLER_3_237
*1959 FILLER_3_249
*1960 FILLER_3_261
*1961 FILLER_3_27
*1962 FILLER_3_273
*1963 FILLER_3_277
*1964 FILLER_3_279
*1965 FILLER_3_281
*1966 FILLER_3_293
*1967 FILLER_3_3
*1968 FILLER_3_305
*1969 FILLER_3_317
*1970 FILLER_3_329
*1971 FILLER_3_333
*1972 FILLER_3_335
*1973 FILLER_3_337
*1974 FILLER_3_349
*1975 FILLER_3_361
*1976 FILLER_3_373
*1977 FILLER_3_385
*1978 FILLER_3_389
*1979 FILLER_3_39
*1980 FILLER_3_391
*1981 FILLER_3_393
*1982 FILLER_3_405
*1983 FILLER_3_51
*1984 FILLER_3_55
*1985 FILLER_3_57
*1986 FILLER_3_69
*1987 FILLER_3_81
*1988 FILLER_3_93
*1989 FILLER_40_109
*1990 FILLER_40_121
*1991 FILLER_40_133
*1992 FILLER_40_137
*1993 FILLER_40_139
*1994 FILLER_40_141
*1995 FILLER_40_15
*1996 FILLER_40_153
*1997 FILLER_40_165
*1998 FILLER_40_169
*1999 FILLER_40_194
*2000 FILLER_40_219
*2001 FILLER_40_223
*2002 FILLER_40_247
*2003 FILLER_40_251
*2004 FILLER_40_259
*2005 FILLER_40_265
*2006 FILLER_40_267
*2007 FILLER_40_27
*2008 FILLER_40_270
*2009 FILLER_40_276
*2010 FILLER_40_29
*2011 FILLER_40_293
*2012 FILLER_40_295
*2013 FILLER_40_3
*2014 FILLER_40_304
*2015 FILLER_40_346
*2016 FILLER_40_355
*2017 FILLER_40_365
*2018 FILLER_40_367
*2019 FILLER_40_384
*2020 FILLER_40_388
*2021 FILLER_40_390
*2022 FILLER_40_41
*2023 FILLER_40_53
*2024 FILLER_40_65
*2025 FILLER_40_77
*2026 FILLER_40_81
*2027 FILLER_40_83
*2028 FILLER_40_85
*2029 FILLER_40_97
*2030 FILLER_41_105
*2031 FILLER_41_109
*2032 FILLER_41_111
*2033 FILLER_41_113
*2034 FILLER_41_125
*2035 FILLER_41_137
*2036 FILLER_41_149
*2037 FILLER_41_15
*2038 FILLER_41_161
*2039 FILLER_41_165
*2040 FILLER_41_167
*2041 FILLER_41_169
*2042 FILLER_41_173
*2043 FILLER_41_186
*2044 FILLER_41_211
*2045 FILLER_41_223
*2046 FILLER_41_241
*2047 FILLER_41_27
*2048 FILLER_41_288
*2049 FILLER_41_3
*2050 FILLER_41_334
*2051 FILLER_41_337
*2052 FILLER_41_373
*2053 FILLER_41_39
*2054 FILLER_41_390
*2055 FILLER_41_393
*2056 FILLER_41_402
*2057 FILLER_41_51
*2058 FILLER_41_55
*2059 FILLER_41_57
*2060 FILLER_41_69
*2061 FILLER_41_81
*2062 FILLER_41_93
*2063 FILLER_42_109
*2064 FILLER_42_121
*2065 FILLER_42_133
*2066 FILLER_42_137
*2067 FILLER_42_139
*2068 FILLER_42_141
*2069 FILLER_42_15
*2070 FILLER_42_153
*2071 FILLER_42_165
*2072 FILLER_42_173
*2073 FILLER_42_183
*2074 FILLER_42_195
*2075 FILLER_42_205
*2076 FILLER_42_217
*2077 FILLER_42_229
*2078 FILLER_42_27
*2079 FILLER_42_270
*2080 FILLER_42_29
*2081 FILLER_42_3
*2082 FILLER_42_303
*2083 FILLER_42_307
*2084 FILLER_42_309
*2085 FILLER_42_321
*2086 FILLER_42_323
*2087 FILLER_42_329
*2088 FILLER_42_346
*2089 FILLER_42_358
*2090 FILLER_42_362
*2091 FILLER_42_365
*2092 FILLER_42_377
*2093 FILLER_42_389
*2094 FILLER_42_397
*2095 FILLER_42_41
*2096 FILLER_42_53
*2097 FILLER_42_65
*2098 FILLER_42_77
*2099 FILLER_42_81
*2100 FILLER_42_83
*2101 FILLER_42_85
*2102 FILLER_42_97
*2103 FILLER_43_105
*2104 FILLER_43_109
*2105 FILLER_43_111
*2106 FILLER_43_113
*2107 FILLER_43_125
*2108 FILLER_43_137
*2109 FILLER_43_149
*2110 FILLER_43_15
*2111 FILLER_43_161
*2112 FILLER_43_165
*2113 FILLER_43_167
*2114 FILLER_43_169
*2115 FILLER_43_181
*2116 FILLER_43_193
*2117 FILLER_43_201
*2118 FILLER_43_227
*2119 FILLER_43_239
*2120 FILLER_43_251
*2121 FILLER_43_263
*2122 FILLER_43_27
*2123 FILLER_43_275
*2124 FILLER_43_281
*2125 FILLER_43_288
*2126 FILLER_43_290
*2127 FILLER_43_296
*2128 FILLER_43_3
*2129 FILLER_43_308
*2130 FILLER_43_320
*2131 FILLER_43_337
*2132 FILLER_43_349
*2133 FILLER_43_361
*2134 FILLER_43_373
*2135 FILLER_43_385
*2136 FILLER_43_389
*2137 FILLER_43_39
*2138 FILLER_43_391
*2139 FILLER_43_393
*2140 FILLER_43_405
*2141 FILLER_43_51
*2142 FILLER_43_55
*2143 FILLER_43_57
*2144 FILLER_43_69
*2145 FILLER_43_81
*2146 FILLER_43_93
*2147 FILLER_44_109
*2148 FILLER_44_121
*2149 FILLER_44_133
*2150 FILLER_44_137
*2151 FILLER_44_139
*2152 FILLER_44_141
*2153 FILLER_44_15
*2154 FILLER_44_153
*2155 FILLER_44_165
*2156 FILLER_44_177
*2157 FILLER_44_189
*2158 FILLER_44_193
*2159 FILLER_44_195
*2160 FILLER_44_197
*2161 FILLER_44_209
*2162 FILLER_44_211
*2163 FILLER_44_228
*2164 FILLER_44_240
*2165 FILLER_44_253
*2166 FILLER_44_265
*2167 FILLER_44_27
*2168 FILLER_44_29
*2169 FILLER_44_3
*2170 FILLER_44_302
*2171 FILLER_44_306
*2172 FILLER_44_309
*2173 FILLER_44_321
*2174 FILLER_44_333
*2175 FILLER_44_345
*2176 FILLER_44_357
*2177 FILLER_44_361
*2178 FILLER_44_363
*2179 FILLER_44_365
*2180 FILLER_44_377
*2181 FILLER_44_389
*2182 FILLER_44_401
*2183 FILLER_44_405
*2184 FILLER_44_41
*2185 FILLER_44_53
*2186 FILLER_44_65
*2187 FILLER_44_77
*2188 FILLER_44_81
*2189 FILLER_44_83
*2190 FILLER_44_85
*2191 FILLER_44_97
*2192 FILLER_45_105
*2193 FILLER_45_109
*2194 FILLER_45_111
*2195 FILLER_45_113
*2196 FILLER_45_125
*2197 FILLER_45_137
*2198 FILLER_45_149
*2199 FILLER_45_15
*2200 FILLER_45_161
*2201 FILLER_45_165
*2202 FILLER_45_167
*2203 FILLER_45_169
*2204 FILLER_45_181
*2205 FILLER_45_193
*2206 FILLER_45_205
*2207 FILLER_45_217
*2208 FILLER_45_221
*2209 FILLER_45_223
*2210 FILLER_45_225
*2211 FILLER_45_237
*2212 FILLER_45_249
*2213 FILLER_45_261
*2214 FILLER_45_269
*2215 FILLER_45_27
*2216 FILLER_45_271
*2217 FILLER_45_286
*2218 FILLER_45_3
*2219 FILLER_45_304
*2220 FILLER_45_316
*2221 FILLER_45_328
*2222 FILLER_45_337
*2223 FILLER_45_349
*2224 FILLER_45_361
*2225 FILLER_45_373
*2226 FILLER_45_385
*2227 FILLER_45_389
*2228 FILLER_45_39
*2229 FILLER_45_391
*2230 FILLER_45_393
*2231 FILLER_45_405
*2232 FILLER_45_51
*2233 FILLER_45_55
*2234 FILLER_45_57
*2235 FILLER_45_69
*2236 FILLER_45_81
*2237 FILLER_45_93
*2238 FILLER_46_109
*2239 FILLER_46_121
*2240 FILLER_46_133
*2241 FILLER_46_137
*2242 FILLER_46_139
*2243 FILLER_46_141
*2244 FILLER_46_15
*2245 FILLER_46_153
*2246 FILLER_46_165
*2247 FILLER_46_177
*2248 FILLER_46_189
*2249 FILLER_46_193
*2250 FILLER_46_195
*2251 FILLER_46_197
*2252 FILLER_46_209
*2253 FILLER_46_221
*2254 FILLER_46_233
*2255 FILLER_46_245
*2256 FILLER_46_249
*2257 FILLER_46_251
*2258 FILLER_46_253
*2259 FILLER_46_265
*2260 FILLER_46_27
*2261 FILLER_46_277
*2262 FILLER_46_279
*2263 FILLER_46_288
*2264 FILLER_46_29
*2265 FILLER_46_290
*2266 FILLER_46_299
*2267 FILLER_46_3
*2268 FILLER_46_307
*2269 FILLER_46_309
*2270 FILLER_46_321
*2271 FILLER_46_333
*2272 FILLER_46_345
*2273 FILLER_46_357
*2274 FILLER_46_361
*2275 FILLER_46_363
*2276 FILLER_46_365
*2277 FILLER_46_377
*2278 FILLER_46_389
*2279 FILLER_46_401
*2280 FILLER_46_405
*2281 FILLER_46_41
*2282 FILLER_46_53
*2283 FILLER_46_65
*2284 FILLER_46_77
*2285 FILLER_46_81
*2286 FILLER_46_83
*2287 FILLER_46_85
*2288 FILLER_46_97
*2289 FILLER_47_105
*2290 FILLER_47_109
*2291 FILLER_47_111
*2292 FILLER_47_113
*2293 FILLER_47_125
*2294 FILLER_47_137
*2295 FILLER_47_149
*2296 FILLER_47_15
*2297 FILLER_47_161
*2298 FILLER_47_165
*2299 FILLER_47_167
*2300 FILLER_47_169
*2301 FILLER_47_181
*2302 FILLER_47_193
*2303 FILLER_47_205
*2304 FILLER_47_217
*2305 FILLER_47_221
*2306 FILLER_47_223
*2307 FILLER_47_225
*2308 FILLER_47_237
*2309 FILLER_47_249
*2310 FILLER_47_261
*2311 FILLER_47_27
*2312 FILLER_47_273
*2313 FILLER_47_277
*2314 FILLER_47_279
*2315 FILLER_47_281
*2316 FILLER_47_293
*2317 FILLER_47_3
*2318 FILLER_47_305
*2319 FILLER_47_317
*2320 FILLER_47_329
*2321 FILLER_47_333
*2322 FILLER_47_335
*2323 FILLER_47_337
*2324 FILLER_47_349
*2325 FILLER_47_361
*2326 FILLER_47_373
*2327 FILLER_47_385
*2328 FILLER_47_389
*2329 FILLER_47_39
*2330 FILLER_47_391
*2331 FILLER_47_393
*2332 FILLER_47_405
*2333 FILLER_47_51
*2334 FILLER_47_55
*2335 FILLER_47_57
*2336 FILLER_47_69
*2337 FILLER_47_81
*2338 FILLER_47_93
*2339 FILLER_48_109
*2340 FILLER_48_121
*2341 FILLER_48_133
*2342 FILLER_48_137
*2343 FILLER_48_139
*2344 FILLER_48_141
*2345 FILLER_48_15
*2346 FILLER_48_153
*2347 FILLER_48_165
*2348 FILLER_48_177
*2349 FILLER_48_189
*2350 FILLER_48_193
*2351 FILLER_48_195
*2352 FILLER_48_197
*2353 FILLER_48_209
*2354 FILLER_48_221
*2355 FILLER_48_233
*2356 FILLER_48_245
*2357 FILLER_48_249
*2358 FILLER_48_251
*2359 FILLER_48_253
*2360 FILLER_48_265
*2361 FILLER_48_27
*2362 FILLER_48_277
*2363 FILLER_48_289
*2364 FILLER_48_29
*2365 FILLER_48_3
*2366 FILLER_48_301
*2367 FILLER_48_305
*2368 FILLER_48_307
*2369 FILLER_48_309
*2370 FILLER_48_321
*2371 FILLER_48_333
*2372 FILLER_48_345
*2373 FILLER_48_357
*2374 FILLER_48_361
*2375 FILLER_48_363
*2376 FILLER_48_365
*2377 FILLER_48_377
*2378 FILLER_48_389
*2379 FILLER_48_401
*2380 FILLER_48_405
*2381 FILLER_48_41
*2382 FILLER_48_53
*2383 FILLER_48_65
*2384 FILLER_48_77
*2385 FILLER_48_81
*2386 FILLER_48_83
*2387 FILLER_48_85
*2388 FILLER_48_97
*2389 FILLER_49_105
*2390 FILLER_49_109
*2391 FILLER_49_111
*2392 FILLER_49_113
*2393 FILLER_49_125
*2394 FILLER_49_137
*2395 FILLER_49_149
*2396 FILLER_49_15
*2397 FILLER_49_161
*2398 FILLER_49_165
*2399 FILLER_49_167
*2400 FILLER_49_169
*2401 FILLER_49_181
*2402 FILLER_49_193
*2403 FILLER_49_205
*2404 FILLER_49_217
*2405 FILLER_49_221
*2406 FILLER_49_223
*2407 FILLER_49_225
*2408 FILLER_49_237
*2409 FILLER_49_249
*2410 FILLER_49_261
*2411 FILLER_49_27
*2412 FILLER_49_273
*2413 FILLER_49_277
*2414 FILLER_49_279
*2415 FILLER_49_281
*2416 FILLER_49_293
*2417 FILLER_49_3
*2418 FILLER_49_305
*2419 FILLER_49_317
*2420 FILLER_49_329
*2421 FILLER_49_333
*2422 FILLER_49_335
*2423 FILLER_49_337
*2424 FILLER_49_349
*2425 FILLER_49_361
*2426 FILLER_49_373
*2427 FILLER_49_385
*2428 FILLER_49_389
*2429 FILLER_49_39
*2430 FILLER_49_391
*2431 FILLER_49_393
*2432 FILLER_49_405
*2433 FILLER_49_51
*2434 FILLER_49_55
*2435 FILLER_49_57
*2436 FILLER_49_69
*2437 FILLER_49_81
*2438 FILLER_49_93
*2439 FILLER_4_109
*2440 FILLER_4_121
*2441 FILLER_4_133
*2442 FILLER_4_137
*2443 FILLER_4_139
*2444 FILLER_4_141
*2445 FILLER_4_15
*2446 FILLER_4_153
*2447 FILLER_4_165
*2448 FILLER_4_177
*2449 FILLER_4_189
*2450 FILLER_4_193
*2451 FILLER_4_195
*2452 FILLER_4_197
*2453 FILLER_4_209
*2454 FILLER_4_221
*2455 FILLER_4_233
*2456 FILLER_4_245
*2457 FILLER_4_249
*2458 FILLER_4_251
*2459 FILLER_4_253
*2460 FILLER_4_265
*2461 FILLER_4_27
*2462 FILLER_4_277
*2463 FILLER_4_289
*2464 FILLER_4_29
*2465 FILLER_4_3
*2466 FILLER_4_301
*2467 FILLER_4_305
*2468 FILLER_4_307
*2469 FILLER_4_309
*2470 FILLER_4_321
*2471 FILLER_4_333
*2472 FILLER_4_345
*2473 FILLER_4_357
*2474 FILLER_4_361
*2475 FILLER_4_363
*2476 FILLER_4_365
*2477 FILLER_4_377
*2478 FILLER_4_389
*2479 FILLER_4_401
*2480 FILLER_4_405
*2481 FILLER_4_41
*2482 FILLER_4_53
*2483 FILLER_4_65
*2484 FILLER_4_77
*2485 FILLER_4_81
*2486 FILLER_4_83
*2487 FILLER_4_85
*2488 FILLER_4_97
*2489 FILLER_50_109
*2490 FILLER_50_121
*2491 FILLER_50_133
*2492 FILLER_50_137
*2493 FILLER_50_139
*2494 FILLER_50_141
*2495 FILLER_50_15
*2496 FILLER_50_153
*2497 FILLER_50_165
*2498 FILLER_50_177
*2499 FILLER_50_189
*2500 FILLER_50_193
*2501 FILLER_50_195
*2502 FILLER_50_197
*2503 FILLER_50_209
*2504 FILLER_50_221
*2505 FILLER_50_233
*2506 FILLER_50_245
*2507 FILLER_50_249
*2508 FILLER_50_251
*2509 FILLER_50_253
*2510 FILLER_50_265
*2511 FILLER_50_27
*2512 FILLER_50_277
*2513 FILLER_50_289
*2514 FILLER_50_29
*2515 FILLER_50_3
*2516 FILLER_50_301
*2517 FILLER_50_305
*2518 FILLER_50_307
*2519 FILLER_50_309
*2520 FILLER_50_321
*2521 FILLER_50_333
*2522 FILLER_50_345
*2523 FILLER_50_357
*2524 FILLER_50_361
*2525 FILLER_50_363
*2526 FILLER_50_365
*2527 FILLER_50_377
*2528 FILLER_50_389
*2529 FILLER_50_401
*2530 FILLER_50_405
*2531 FILLER_50_41
*2532 FILLER_50_53
*2533 FILLER_50_65
*2534 FILLER_50_77
*2535 FILLER_50_81
*2536 FILLER_50_83
*2537 FILLER_50_85
*2538 FILLER_50_97
*2539 FILLER_51_105
*2540 FILLER_51_109
*2541 FILLER_51_111
*2542 FILLER_51_113
*2543 FILLER_51_125
*2544 FILLER_51_137
*2545 FILLER_51_149
*2546 FILLER_51_15
*2547 FILLER_51_161
*2548 FILLER_51_165
*2549 FILLER_51_167
*2550 FILLER_51_169
*2551 FILLER_51_181
*2552 FILLER_51_193
*2553 FILLER_51_205
*2554 FILLER_51_217
*2555 FILLER_51_221
*2556 FILLER_51_223
*2557 FILLER_51_225
*2558 FILLER_51_237
*2559 FILLER_51_249
*2560 FILLER_51_261
*2561 FILLER_51_27
*2562 FILLER_51_273
*2563 FILLER_51_277
*2564 FILLER_51_279
*2565 FILLER_51_281
*2566 FILLER_51_293
*2567 FILLER_51_3
*2568 FILLER_51_305
*2569 FILLER_51_317
*2570 FILLER_51_329
*2571 FILLER_51_333
*2572 FILLER_51_335
*2573 FILLER_51_337
*2574 FILLER_51_349
*2575 FILLER_51_361
*2576 FILLER_51_373
*2577 FILLER_51_385
*2578 FILLER_51_389
*2579 FILLER_51_39
*2580 FILLER_51_391
*2581 FILLER_51_393
*2582 FILLER_51_405
*2583 FILLER_51_51
*2584 FILLER_51_55
*2585 FILLER_51_57
*2586 FILLER_51_69
*2587 FILLER_51_81
*2588 FILLER_51_93
*2589 FILLER_52_109
*2590 FILLER_52_121
*2591 FILLER_52_133
*2592 FILLER_52_137
*2593 FILLER_52_139
*2594 FILLER_52_141
*2595 FILLER_52_15
*2596 FILLER_52_153
*2597 FILLER_52_165
*2598 FILLER_52_177
*2599 FILLER_52_189
*2600 FILLER_52_193
*2601 FILLER_52_195
*2602 FILLER_52_197
*2603 FILLER_52_209
*2604 FILLER_52_221
*2605 FILLER_52_233
*2606 FILLER_52_245
*2607 FILLER_52_249
*2608 FILLER_52_251
*2609 FILLER_52_253
*2610 FILLER_52_265
*2611 FILLER_52_27
*2612 FILLER_52_277
*2613 FILLER_52_289
*2614 FILLER_52_29
*2615 FILLER_52_3
*2616 FILLER_52_301
*2617 FILLER_52_305
*2618 FILLER_52_307
*2619 FILLER_52_309
*2620 FILLER_52_321
*2621 FILLER_52_333
*2622 FILLER_52_345
*2623 FILLER_52_357
*2624 FILLER_52_361
*2625 FILLER_52_363
*2626 FILLER_52_365
*2627 FILLER_52_377
*2628 FILLER_52_389
*2629 FILLER_52_401
*2630 FILLER_52_405
*2631 FILLER_52_41
*2632 FILLER_52_53
*2633 FILLER_52_65
*2634 FILLER_52_77
*2635 FILLER_52_81
*2636 FILLER_52_83
*2637 FILLER_52_85
*2638 FILLER_52_97
*2639 FILLER_53_105
*2640 FILLER_53_109
*2641 FILLER_53_111
*2642 FILLER_53_113
*2643 FILLER_53_125
*2644 FILLER_53_137
*2645 FILLER_53_149
*2646 FILLER_53_15
*2647 FILLER_53_161
*2648 FILLER_53_165
*2649 FILLER_53_167
*2650 FILLER_53_169
*2651 FILLER_53_181
*2652 FILLER_53_193
*2653 FILLER_53_205
*2654 FILLER_53_217
*2655 FILLER_53_221
*2656 FILLER_53_223
*2657 FILLER_53_225
*2658 FILLER_53_237
*2659 FILLER_53_249
*2660 FILLER_53_261
*2661 FILLER_53_27
*2662 FILLER_53_273
*2663 FILLER_53_277
*2664 FILLER_53_279
*2665 FILLER_53_281
*2666 FILLER_53_293
*2667 FILLER_53_3
*2668 FILLER_53_305
*2669 FILLER_53_317
*2670 FILLER_53_329
*2671 FILLER_53_333
*2672 FILLER_53_335
*2673 FILLER_53_337
*2674 FILLER_53_349
*2675 FILLER_53_361
*2676 FILLER_53_373
*2677 FILLER_53_385
*2678 FILLER_53_389
*2679 FILLER_53_39
*2680 FILLER_53_391
*2681 FILLER_53_393
*2682 FILLER_53_405
*2683 FILLER_53_51
*2684 FILLER_53_55
*2685 FILLER_53_57
*2686 FILLER_53_69
*2687 FILLER_53_81
*2688 FILLER_53_93
*2689 FILLER_54_109
*2690 FILLER_54_121
*2691 FILLER_54_133
*2692 FILLER_54_137
*2693 FILLER_54_139
*2694 FILLER_54_141
*2695 FILLER_54_15
*2696 FILLER_54_153
*2697 FILLER_54_165
*2698 FILLER_54_177
*2699 FILLER_54_189
*2700 FILLER_54_193
*2701 FILLER_54_195
*2702 FILLER_54_197
*2703 FILLER_54_209
*2704 FILLER_54_221
*2705 FILLER_54_233
*2706 FILLER_54_245
*2707 FILLER_54_249
*2708 FILLER_54_251
*2709 FILLER_54_253
*2710 FILLER_54_265
*2711 FILLER_54_27
*2712 FILLER_54_277
*2713 FILLER_54_289
*2714 FILLER_54_29
*2715 FILLER_54_3
*2716 FILLER_54_301
*2717 FILLER_54_305
*2718 FILLER_54_307
*2719 FILLER_54_309
*2720 FILLER_54_321
*2721 FILLER_54_333
*2722 FILLER_54_345
*2723 FILLER_54_357
*2724 FILLER_54_361
*2725 FILLER_54_363
*2726 FILLER_54_365
*2727 FILLER_54_377
*2728 FILLER_54_389
*2729 FILLER_54_401
*2730 FILLER_54_405
*2731 FILLER_54_41
*2732 FILLER_54_53
*2733 FILLER_54_65
*2734 FILLER_54_77
*2735 FILLER_54_81
*2736 FILLER_54_83
*2737 FILLER_54_85
*2738 FILLER_54_97
*2739 FILLER_55_105
*2740 FILLER_55_109
*2741 FILLER_55_111
*2742 FILLER_55_113
*2743 FILLER_55_125
*2744 FILLER_55_137
*2745 FILLER_55_149
*2746 FILLER_55_15
*2747 FILLER_55_161
*2748 FILLER_55_165
*2749 FILLER_55_167
*2750 FILLER_55_169
*2751 FILLER_55_181
*2752 FILLER_55_193
*2753 FILLER_55_205
*2754 FILLER_55_217
*2755 FILLER_55_221
*2756 FILLER_55_223
*2757 FILLER_55_225
*2758 FILLER_55_237
*2759 FILLER_55_249
*2760 FILLER_55_261
*2761 FILLER_55_27
*2762 FILLER_55_273
*2763 FILLER_55_277
*2764 FILLER_55_279
*2765 FILLER_55_281
*2766 FILLER_55_293
*2767 FILLER_55_3
*2768 FILLER_55_305
*2769 FILLER_55_317
*2770 FILLER_55_329
*2771 FILLER_55_333
*2772 FILLER_55_335
*2773 FILLER_55_337
*2774 FILLER_55_349
*2775 FILLER_55_361
*2776 FILLER_55_373
*2777 FILLER_55_385
*2778 FILLER_55_389
*2779 FILLER_55_39
*2780 FILLER_55_391
*2781 FILLER_55_393
*2782 FILLER_55_405
*2783 FILLER_55_51
*2784 FILLER_55_55
*2785 FILLER_55_57
*2786 FILLER_55_69
*2787 FILLER_55_81
*2788 FILLER_55_93
*2789 FILLER_56_109
*2790 FILLER_56_121
*2791 FILLER_56_133
*2792 FILLER_56_137
*2793 FILLER_56_139
*2794 FILLER_56_141
*2795 FILLER_56_15
*2796 FILLER_56_153
*2797 FILLER_56_165
*2798 FILLER_56_177
*2799 FILLER_56_189
*2800 FILLER_56_193
*2801 FILLER_56_195
*2802 FILLER_56_197
*2803 FILLER_56_209
*2804 FILLER_56_221
*2805 FILLER_56_233
*2806 FILLER_56_245
*2807 FILLER_56_249
*2808 FILLER_56_251
*2809 FILLER_56_253
*2810 FILLER_56_265
*2811 FILLER_56_27
*2812 FILLER_56_277
*2813 FILLER_56_289
*2814 FILLER_56_29
*2815 FILLER_56_3
*2816 FILLER_56_301
*2817 FILLER_56_305
*2818 FILLER_56_307
*2819 FILLER_56_309
*2820 FILLER_56_321
*2821 FILLER_56_333
*2822 FILLER_56_345
*2823 FILLER_56_357
*2824 FILLER_56_361
*2825 FILLER_56_363
*2826 FILLER_56_365
*2827 FILLER_56_377
*2828 FILLER_56_389
*2829 FILLER_56_401
*2830 FILLER_56_405
*2831 FILLER_56_41
*2832 FILLER_56_53
*2833 FILLER_56_65
*2834 FILLER_56_77
*2835 FILLER_56_81
*2836 FILLER_56_83
*2837 FILLER_56_85
*2838 FILLER_56_97
*2839 FILLER_57_105
*2840 FILLER_57_109
*2841 FILLER_57_111
*2842 FILLER_57_113
*2843 FILLER_57_125
*2844 FILLER_57_137
*2845 FILLER_57_149
*2846 FILLER_57_15
*2847 FILLER_57_161
*2848 FILLER_57_165
*2849 FILLER_57_167
*2850 FILLER_57_169
*2851 FILLER_57_181
*2852 FILLER_57_193
*2853 FILLER_57_205
*2854 FILLER_57_217
*2855 FILLER_57_221
*2856 FILLER_57_223
*2857 FILLER_57_225
*2858 FILLER_57_237
*2859 FILLER_57_249
*2860 FILLER_57_261
*2861 FILLER_57_27
*2862 FILLER_57_273
*2863 FILLER_57_277
*2864 FILLER_57_279
*2865 FILLER_57_281
*2866 FILLER_57_293
*2867 FILLER_57_3
*2868 FILLER_57_305
*2869 FILLER_57_317
*2870 FILLER_57_329
*2871 FILLER_57_333
*2872 FILLER_57_335
*2873 FILLER_57_337
*2874 FILLER_57_349
*2875 FILLER_57_361
*2876 FILLER_57_373
*2877 FILLER_57_385
*2878 FILLER_57_389
*2879 FILLER_57_39
*2880 FILLER_57_391
*2881 FILLER_57_393
*2882 FILLER_57_405
*2883 FILLER_57_51
*2884 FILLER_57_55
*2885 FILLER_57_57
*2886 FILLER_57_69
*2887 FILLER_57_81
*2888 FILLER_57_93
*2889 FILLER_58_109
*2890 FILLER_58_121
*2891 FILLER_58_133
*2892 FILLER_58_137
*2893 FILLER_58_139
*2894 FILLER_58_141
*2895 FILLER_58_15
*2896 FILLER_58_153
*2897 FILLER_58_165
*2898 FILLER_58_177
*2899 FILLER_58_189
*2900 FILLER_58_193
*2901 FILLER_58_195
*2902 FILLER_58_197
*2903 FILLER_58_209
*2904 FILLER_58_221
*2905 FILLER_58_233
*2906 FILLER_58_245
*2907 FILLER_58_249
*2908 FILLER_58_251
*2909 FILLER_58_253
*2910 FILLER_58_265
*2911 FILLER_58_27
*2912 FILLER_58_277
*2913 FILLER_58_289
*2914 FILLER_58_29
*2915 FILLER_58_3
*2916 FILLER_58_301
*2917 FILLER_58_305
*2918 FILLER_58_307
*2919 FILLER_58_309
*2920 FILLER_58_321
*2921 FILLER_58_333
*2922 FILLER_58_345
*2923 FILLER_58_357
*2924 FILLER_58_361
*2925 FILLER_58_363
*2926 FILLER_58_365
*2927 FILLER_58_377
*2928 FILLER_58_389
*2929 FILLER_58_401
*2930 FILLER_58_405
*2931 FILLER_58_41
*2932 FILLER_58_53
*2933 FILLER_58_65
*2934 FILLER_58_77
*2935 FILLER_58_81
*2936 FILLER_58_83
*2937 FILLER_58_85
*2938 FILLER_58_97
*2939 FILLER_59_105
*2940 FILLER_59_109
*2941 FILLER_59_111
*2942 FILLER_59_113
*2943 FILLER_59_125
*2944 FILLER_59_137
*2945 FILLER_59_149
*2946 FILLER_59_15
*2947 FILLER_59_161
*2948 FILLER_59_165
*2949 FILLER_59_167
*2950 FILLER_59_169
*2951 FILLER_59_181
*2952 FILLER_59_193
*2953 FILLER_59_205
*2954 FILLER_59_217
*2955 FILLER_59_221
*2956 FILLER_59_223
*2957 FILLER_59_225
*2958 FILLER_59_237
*2959 FILLER_59_249
*2960 FILLER_59_261
*2961 FILLER_59_27
*2962 FILLER_59_273
*2963 FILLER_59_277
*2964 FILLER_59_279
*2965 FILLER_59_281
*2966 FILLER_59_293
*2967 FILLER_59_3
*2968 FILLER_59_305
*2969 FILLER_59_317
*2970 FILLER_59_329
*2971 FILLER_59_333
*2972 FILLER_59_335
*2973 FILLER_59_337
*2974 FILLER_59_349
*2975 FILLER_59_361
*2976 FILLER_59_373
*2977 FILLER_59_385
*2978 FILLER_59_389
*2979 FILLER_59_39
*2980 FILLER_59_391
*2981 FILLER_59_393
*2982 FILLER_59_405
*2983 FILLER_59_51
*2984 FILLER_59_55
*2985 FILLER_59_57
*2986 FILLER_59_69
*2987 FILLER_59_81
*2988 FILLER_59_93
*2989 FILLER_5_105
*2990 FILLER_5_109
*2991 FILLER_5_111
*2992 FILLER_5_113
*2993 FILLER_5_125
*2994 FILLER_5_137
*2995 FILLER_5_149
*2996 FILLER_5_15
*2997 FILLER_5_161
*2998 FILLER_5_165
*2999 FILLER_5_167
*3000 FILLER_5_169
*3001 FILLER_5_181
*3002 FILLER_5_193
*3003 FILLER_5_205
*3004 FILLER_5_217
*3005 FILLER_5_221
*3006 FILLER_5_223
*3007 FILLER_5_225
*3008 FILLER_5_237
*3009 FILLER_5_249
*3010 FILLER_5_261
*3011 FILLER_5_27
*3012 FILLER_5_273
*3013 FILLER_5_277
*3014 FILLER_5_279
*3015 FILLER_5_281
*3016 FILLER_5_293
*3017 FILLER_5_3
*3018 FILLER_5_305
*3019 FILLER_5_317
*3020 FILLER_5_329
*3021 FILLER_5_333
*3022 FILLER_5_335
*3023 FILLER_5_337
*3024 FILLER_5_349
*3025 FILLER_5_361
*3026 FILLER_5_373
*3027 FILLER_5_385
*3028 FILLER_5_389
*3029 FILLER_5_39
*3030 FILLER_5_391
*3031 FILLER_5_393
*3032 FILLER_5_405
*3033 FILLER_5_51
*3034 FILLER_5_55
*3035 FILLER_5_57
*3036 FILLER_5_69
*3037 FILLER_5_81
*3038 FILLER_5_93
*3039 FILLER_60_109
*3040 FILLER_60_121
*3041 FILLER_60_133
*3042 FILLER_60_137
*3043 FILLER_60_139
*3044 FILLER_60_141
*3045 FILLER_60_15
*3046 FILLER_60_153
*3047 FILLER_60_165
*3048 FILLER_60_177
*3049 FILLER_60_189
*3050 FILLER_60_193
*3051 FILLER_60_195
*3052 FILLER_60_197
*3053 FILLER_60_209
*3054 FILLER_60_221
*3055 FILLER_60_233
*3056 FILLER_60_245
*3057 FILLER_60_249
*3058 FILLER_60_251
*3059 FILLER_60_253
*3060 FILLER_60_265
*3061 FILLER_60_27
*3062 FILLER_60_277
*3063 FILLER_60_289
*3064 FILLER_60_29
*3065 FILLER_60_3
*3066 FILLER_60_301
*3067 FILLER_60_305
*3068 FILLER_60_307
*3069 FILLER_60_309
*3070 FILLER_60_321
*3071 FILLER_60_333
*3072 FILLER_60_345
*3073 FILLER_60_357
*3074 FILLER_60_361
*3075 FILLER_60_363
*3076 FILLER_60_365
*3077 FILLER_60_377
*3078 FILLER_60_389
*3079 FILLER_60_401
*3080 FILLER_60_405
*3081 FILLER_60_41
*3082 FILLER_60_53
*3083 FILLER_60_65
*3084 FILLER_60_77
*3085 FILLER_60_81
*3086 FILLER_60_83
*3087 FILLER_60_85
*3088 FILLER_60_97
*3089 FILLER_61_105
*3090 FILLER_61_109
*3091 FILLER_61_111
*3092 FILLER_61_113
*3093 FILLER_61_125
*3094 FILLER_61_137
*3095 FILLER_61_149
*3096 FILLER_61_15
*3097 FILLER_61_161
*3098 FILLER_61_165
*3099 FILLER_61_167
*3100 FILLER_61_169
*3101 FILLER_61_181
*3102 FILLER_61_193
*3103 FILLER_61_205
*3104 FILLER_61_217
*3105 FILLER_61_221
*3106 FILLER_61_223
*3107 FILLER_61_225
*3108 FILLER_61_237
*3109 FILLER_61_249
*3110 FILLER_61_261
*3111 FILLER_61_27
*3112 FILLER_61_273
*3113 FILLER_61_277
*3114 FILLER_61_279
*3115 FILLER_61_281
*3116 FILLER_61_293
*3117 FILLER_61_3
*3118 FILLER_61_305
*3119 FILLER_61_317
*3120 FILLER_61_329
*3121 FILLER_61_333
*3122 FILLER_61_335
*3123 FILLER_61_337
*3124 FILLER_61_349
*3125 FILLER_61_361
*3126 FILLER_61_373
*3127 FILLER_61_385
*3128 FILLER_61_389
*3129 FILLER_61_39
*3130 FILLER_61_391
*3131 FILLER_61_393
*3132 FILLER_61_405
*3133 FILLER_61_51
*3134 FILLER_61_55
*3135 FILLER_61_57
*3136 FILLER_61_69
*3137 FILLER_61_81
*3138 FILLER_61_93
*3139 FILLER_62_109
*3140 FILLER_62_121
*3141 FILLER_62_133
*3142 FILLER_62_137
*3143 FILLER_62_139
*3144 FILLER_62_141
*3145 FILLER_62_15
*3146 FILLER_62_153
*3147 FILLER_62_165
*3148 FILLER_62_177
*3149 FILLER_62_189
*3150 FILLER_62_193
*3151 FILLER_62_195
*3152 FILLER_62_197
*3153 FILLER_62_209
*3154 FILLER_62_221
*3155 FILLER_62_233
*3156 FILLER_62_245
*3157 FILLER_62_249
*3158 FILLER_62_251
*3159 FILLER_62_253
*3160 FILLER_62_265
*3161 FILLER_62_27
*3162 FILLER_62_277
*3163 FILLER_62_289
*3164 FILLER_62_29
*3165 FILLER_62_3
*3166 FILLER_62_301
*3167 FILLER_62_305
*3168 FILLER_62_307
*3169 FILLER_62_309
*3170 FILLER_62_321
*3171 FILLER_62_333
*3172 FILLER_62_345
*3173 FILLER_62_357
*3174 FILLER_62_361
*3175 FILLER_62_363
*3176 FILLER_62_365
*3177 FILLER_62_377
*3178 FILLER_62_389
*3179 FILLER_62_401
*3180 FILLER_62_405
*3181 FILLER_62_41
*3182 FILLER_62_53
*3183 FILLER_62_65
*3184 FILLER_62_77
*3185 FILLER_62_81
*3186 FILLER_62_83
*3187 FILLER_62_85
*3188 FILLER_62_97
*3189 FILLER_63_105
*3190 FILLER_63_109
*3191 FILLER_63_111
*3192 FILLER_63_113
*3193 FILLER_63_125
*3194 FILLER_63_137
*3195 FILLER_63_149
*3196 FILLER_63_15
*3197 FILLER_63_161
*3198 FILLER_63_165
*3199 FILLER_63_167
*3200 FILLER_63_169
*3201 FILLER_63_181
*3202 FILLER_63_193
*3203 FILLER_63_205
*3204 FILLER_63_217
*3205 FILLER_63_221
*3206 FILLER_63_223
*3207 FILLER_63_225
*3208 FILLER_63_237
*3209 FILLER_63_249
*3210 FILLER_63_261
*3211 FILLER_63_27
*3212 FILLER_63_273
*3213 FILLER_63_277
*3214 FILLER_63_279
*3215 FILLER_63_281
*3216 FILLER_63_293
*3217 FILLER_63_3
*3218 FILLER_63_305
*3219 FILLER_63_317
*3220 FILLER_63_329
*3221 FILLER_63_333
*3222 FILLER_63_335
*3223 FILLER_63_337
*3224 FILLER_63_349
*3225 FILLER_63_361
*3226 FILLER_63_373
*3227 FILLER_63_385
*3228 FILLER_63_389
*3229 FILLER_63_39
*3230 FILLER_63_391
*3231 FILLER_63_393
*3232 FILLER_63_405
*3233 FILLER_63_51
*3234 FILLER_63_55
*3235 FILLER_63_57
*3236 FILLER_63_69
*3237 FILLER_63_81
*3238 FILLER_63_93
*3239 FILLER_64_109
*3240 FILLER_64_111
*3241 FILLER_64_113
*3242 FILLER_64_125
*3243 FILLER_64_137
*3244 FILLER_64_139
*3245 FILLER_64_141
*3246 FILLER_64_15
*3247 FILLER_64_153
*3248 FILLER_64_165
*3249 FILLER_64_167
*3250 FILLER_64_169
*3251 FILLER_64_181
*3252 FILLER_64_193
*3253 FILLER_64_195
*3254 FILLER_64_197
*3255 FILLER_64_209
*3256 FILLER_64_217
*3257 FILLER_64_221
*3258 FILLER_64_223
*3259 FILLER_64_225
*3260 FILLER_64_237
*3261 FILLER_64_249
*3262 FILLER_64_251
*3263 FILLER_64_253
*3264 FILLER_64_265
*3265 FILLER_64_27
*3266 FILLER_64_277
*3267 FILLER_64_279
*3268 FILLER_64_281
*3269 FILLER_64_29
*3270 FILLER_64_293
*3271 FILLER_64_3
*3272 FILLER_64_305
*3273 FILLER_64_307
*3274 FILLER_64_309
*3275 FILLER_64_321
*3276 FILLER_64_333
*3277 FILLER_64_335
*3278 FILLER_64_337
*3279 FILLER_64_349
*3280 FILLER_64_361
*3281 FILLER_64_363
*3282 FILLER_64_365
*3283 FILLER_64_377
*3284 FILLER_64_389
*3285 FILLER_64_391
*3286 FILLER_64_393
*3287 FILLER_64_405
*3288 FILLER_64_41
*3289 FILLER_64_53
*3290 FILLER_64_55
*3291 FILLER_64_57
*3292 FILLER_64_69
*3293 FILLER_64_81
*3294 FILLER_64_83
*3295 FILLER_64_85
*3296 FILLER_64_97
*3297 FILLER_6_109
*3298 FILLER_6_121
*3299 FILLER_6_133
*3300 FILLER_6_137
*3301 FILLER_6_139
*3302 FILLER_6_141
*3303 FILLER_6_15
*3304 FILLER_6_153
*3305 FILLER_6_165
*3306 FILLER_6_177
*3307 FILLER_6_189
*3308 FILLER_6_193
*3309 FILLER_6_195
*3310 FILLER_6_197
*3311 FILLER_6_209
*3312 FILLER_6_221
*3313 FILLER_6_233
*3314 FILLER_6_245
*3315 FILLER_6_249
*3316 FILLER_6_251
*3317 FILLER_6_253
*3318 FILLER_6_265
*3319 FILLER_6_27
*3320 FILLER_6_277
*3321 FILLER_6_289
*3322 FILLER_6_29
*3323 FILLER_6_3
*3324 FILLER_6_301
*3325 FILLER_6_305
*3326 FILLER_6_307
*3327 FILLER_6_309
*3328 FILLER_6_321
*3329 FILLER_6_333
*3330 FILLER_6_345
*3331 FILLER_6_357
*3332 FILLER_6_361
*3333 FILLER_6_363
*3334 FILLER_6_365
*3335 FILLER_6_377
*3336 FILLER_6_389
*3337 FILLER_6_401
*3338 FILLER_6_405
*3339 FILLER_6_41
*3340 FILLER_6_53
*3341 FILLER_6_65
*3342 FILLER_6_77
*3343 FILLER_6_81
*3344 FILLER_6_83
*3345 FILLER_6_85
*3346 FILLER_6_97
*3347 FILLER_7_105
*3348 FILLER_7_109
*3349 FILLER_7_111
*3350 FILLER_7_113
*3351 FILLER_7_125
*3352 FILLER_7_137
*3353 FILLER_7_149
*3354 FILLER_7_15
*3355 FILLER_7_161
*3356 FILLER_7_165
*3357 FILLER_7_167
*3358 FILLER_7_169
*3359 FILLER_7_181
*3360 FILLER_7_193
*3361 FILLER_7_205
*3362 FILLER_7_217
*3363 FILLER_7_221
*3364 FILLER_7_223
*3365 FILLER_7_225
*3366 FILLER_7_237
*3367 FILLER_7_249
*3368 FILLER_7_261
*3369 FILLER_7_27
*3370 FILLER_7_273
*3371 FILLER_7_277
*3372 FILLER_7_279
*3373 FILLER_7_281
*3374 FILLER_7_293
*3375 FILLER_7_3
*3376 FILLER_7_305
*3377 FILLER_7_317
*3378 FILLER_7_329
*3379 FILLER_7_333
*3380 FILLER_7_335
*3381 FILLER_7_337
*3382 FILLER_7_349
*3383 FILLER_7_361
*3384 FILLER_7_373
*3385 FILLER_7_385
*3386 FILLER_7_389
*3387 FILLER_7_39
*3388 FILLER_7_391
*3389 FILLER_7_393
*3390 FILLER_7_405
*3391 FILLER_7_51
*3392 FILLER_7_55
*3393 FILLER_7_57
*3394 FILLER_7_69
*3395 FILLER_7_81
*3396 FILLER_7_93
*3397 FILLER_8_109
*3398 FILLER_8_121
*3399 FILLER_8_133
*3400 FILLER_8_137
*3401 FILLER_8_139
*3402 FILLER_8_141
*3403 FILLER_8_15
*3404 FILLER_8_153
*3405 FILLER_8_165
*3406 FILLER_8_177
*3407 FILLER_8_189
*3408 FILLER_8_193
*3409 FILLER_8_195
*3410 FILLER_8_197
*3411 FILLER_8_209
*3412 FILLER_8_221
*3413 FILLER_8_233
*3414 FILLER_8_245
*3415 FILLER_8_249
*3416 FILLER_8_251
*3417 FILLER_8_253
*3418 FILLER_8_265
*3419 FILLER_8_27
*3420 FILLER_8_277
*3421 FILLER_8_289
*3422 FILLER_8_29
*3423 FILLER_8_3
*3424 FILLER_8_301
*3425 FILLER_8_305
*3426 FILLER_8_307
*3427 FILLER_8_309
*3428 FILLER_8_321
*3429 FILLER_8_333
*3430 FILLER_8_345
*3431 FILLER_8_357
*3432 FILLER_8_361
*3433 FILLER_8_363
*3434 FILLER_8_365
*3435 FILLER_8_377
*3436 FILLER_8_389
*3437 FILLER_8_401
*3438 FILLER_8_405
*3439 FILLER_8_41
*3440 FILLER_8_53
*3441 FILLER_8_65
*3442 FILLER_8_77
*3443 FILLER_8_81
*3444 FILLER_8_83
*3445 FILLER_8_85
*3446 FILLER_8_97
*3447 FILLER_9_105
*3448 FILLER_9_109
*3449 FILLER_9_111
*3450 FILLER_9_113
*3451 FILLER_9_125
*3452 FILLER_9_137
*3453 FILLER_9_149
*3454 FILLER_9_15
*3455 FILLER_9_161
*3456 FILLER_9_165
*3457 FILLER_9_167
*3458 FILLER_9_169
*3459 FILLER_9_181
*3460 FILLER_9_193
*3461 FILLER_9_205
*3462 FILLER_9_217
*3463 FILLER_9_221
*3464 FILLER_9_223
*3465 FILLER_9_225
*3466 FILLER_9_237
*3467 FILLER_9_249
*3468 FILLER_9_261
*3469 FILLER_9_27
*3470 FILLER_9_273
*3471 FILLER_9_277
*3472 FILLER_9_279
*3473 FILLER_9_281
*3474 FILLER_9_293
*3475 FILLER_9_3
*3476 FILLER_9_305
*3477 FILLER_9_317
*3478 FILLER_9_329
*3479 FILLER_9_333
*3480 FILLER_9_335
*3481 FILLER_9_337
*3482 FILLER_9_349
*3483 FILLER_9_361
*3484 FILLER_9_373
*3485 FILLER_9_385
*3486 FILLER_9_389
*3487 FILLER_9_39
*3488 FILLER_9_391
*3489 FILLER_9_393
*3490 FILLER_9_405
*3491 FILLER_9_51
*3492 FILLER_9_55
*3493 FILLER_9_57
*3494 FILLER_9_69
*3495 FILLER_9_81
*3496 FILLER_9_93
*3497 PHY_EDGE_ROW_0_Left_65
*3498 PHY_EDGE_ROW_0_Right_0
*3499 PHY_EDGE_ROW_10_Left_75
*3500 PHY_EDGE_ROW_10_Right_10
*3501 PHY_EDGE_ROW_11_Left_76
*3502 PHY_EDGE_ROW_11_Right_11
*3503 PHY_EDGE_ROW_12_Left_77
*3504 PHY_EDGE_ROW_12_Right_12
*3505 PHY_EDGE_ROW_13_Left_78
*3506 PHY_EDGE_ROW_13_Right_13
*3507 PHY_EDGE_ROW_14_Left_79
*3508 PHY_EDGE_ROW_14_Right_14
*3509 PHY_EDGE_ROW_15_Left_80
*3510 PHY_EDGE_ROW_15_Right_15
*3511 PHY_EDGE_ROW_16_Left_81
*3512 PHY_EDGE_ROW_16_Right_16
*3513 PHY_EDGE_ROW_17_Left_82
*3514 PHY_EDGE_ROW_17_Right_17
*3515 PHY_EDGE_ROW_18_Left_83
*3516 PHY_EDGE_ROW_18_Right_18
*3517 PHY_EDGE_ROW_19_Left_84
*3518 PHY_EDGE_ROW_19_Right_19
*3519 PHY_EDGE_ROW_1_Left_66
*3520 PHY_EDGE_ROW_1_Right_1
*3521 PHY_EDGE_ROW_20_Left_85
*3522 PHY_EDGE_ROW_20_Right_20
*3523 PHY_EDGE_ROW_21_Left_86
*3524 PHY_EDGE_ROW_21_Right_21
*3525 PHY_EDGE_ROW_22_Left_87
*3526 PHY_EDGE_ROW_22_Right_22
*3527 PHY_EDGE_ROW_23_Left_88
*3528 PHY_EDGE_ROW_23_Right_23
*3529 PHY_EDGE_ROW_24_Left_89
*3530 PHY_EDGE_ROW_24_Right_24
*3531 PHY_EDGE_ROW_25_Left_90
*3532 PHY_EDGE_ROW_25_Right_25
*3533 PHY_EDGE_ROW_26_Left_91
*3534 PHY_EDGE_ROW_26_Right_26
*3535 PHY_EDGE_ROW_27_Left_92
*3536 PHY_EDGE_ROW_27_Right_27
*3537 PHY_EDGE_ROW_28_Left_93
*3538 PHY_EDGE_ROW_28_Right_28
*3539 PHY_EDGE_ROW_29_Left_94
*3540 PHY_EDGE_ROW_29_Right_29
*3541 PHY_EDGE_ROW_2_Left_67
*3542 PHY_EDGE_ROW_2_Right_2
*3543 PHY_EDGE_ROW_30_Left_95
*3544 PHY_EDGE_ROW_30_Right_30
*3545 PHY_EDGE_ROW_31_Left_96
*3546 PHY_EDGE_ROW_31_Right_31
*3547 PHY_EDGE_ROW_32_Left_97
*3548 PHY_EDGE_ROW_32_Right_32
*3549 PHY_EDGE_ROW_33_Left_98
*3550 PHY_EDGE_ROW_33_Right_33
*3551 PHY_EDGE_ROW_34_Left_99
*3552 PHY_EDGE_ROW_34_Right_34
*3553 PHY_EDGE_ROW_35_Left_100
*3554 PHY_EDGE_ROW_35_Right_35
*3555 PHY_EDGE_ROW_36_Left_101
*3556 PHY_EDGE_ROW_36_Right_36
*3557 PHY_EDGE_ROW_37_Left_102
*3558 PHY_EDGE_ROW_37_Right_37
*3559 PHY_EDGE_ROW_38_Left_103
*3560 PHY_EDGE_ROW_38_Right_38
*3561 PHY_EDGE_ROW_39_Left_104
*3562 PHY_EDGE_ROW_39_Right_39
*3563 PHY_EDGE_ROW_3_Left_68
*3564 PHY_EDGE_ROW_3_Right_3
*3565 PHY_EDGE_ROW_40_Left_105
*3566 PHY_EDGE_ROW_40_Right_40
*3567 PHY_EDGE_ROW_41_Left_106
*3568 PHY_EDGE_ROW_41_Right_41
*3569 PHY_EDGE_ROW_42_Left_107
*3570 PHY_EDGE_ROW_42_Right_42
*3571 PHY_EDGE_ROW_43_Left_108
*3572 PHY_EDGE_ROW_43_Right_43
*3573 PHY_EDGE_ROW_44_Left_109
*3574 PHY_EDGE_ROW_44_Right_44
*3575 PHY_EDGE_ROW_45_Left_110
*3576 PHY_EDGE_ROW_45_Right_45
*3577 PHY_EDGE_ROW_46_Left_111
*3578 PHY_EDGE_ROW_46_Right_46
*3579 PHY_EDGE_ROW_47_Left_112
*3580 PHY_EDGE_ROW_47_Right_47
*3581 PHY_EDGE_ROW_48_Left_113
*3582 PHY_EDGE_ROW_48_Right_48
*3583 PHY_EDGE_ROW_49_Left_114
*3584 PHY_EDGE_ROW_49_Right_49
*3585 PHY_EDGE_ROW_4_Left_69
*3586 PHY_EDGE_ROW_4_Right_4
*3587 PHY_EDGE_ROW_50_Left_115
*3588 PHY_EDGE_ROW_50_Right_50
*3589 PHY_EDGE_ROW_51_Left_116
*3590 PHY_EDGE_ROW_51_Right_51
*3591 PHY_EDGE_ROW_52_Left_117
*3592 PHY_EDGE_ROW_52_Right_52
*3593 PHY_EDGE_ROW_53_Left_118
*3594 PHY_EDGE_ROW_53_Right_53
*3595 PHY_EDGE_ROW_54_Left_119
*3596 PHY_EDGE_ROW_54_Right_54
*3597 PHY_EDGE_ROW_55_Left_120
*3598 PHY_EDGE_ROW_55_Right_55
*3599 PHY_EDGE_ROW_56_Left_121
*3600 PHY_EDGE_ROW_56_Right_56
*3601 PHY_EDGE_ROW_57_Left_122
*3602 PHY_EDGE_ROW_57_Right_57
*3603 PHY_EDGE_ROW_58_Left_123
*3604 PHY_EDGE_ROW_58_Right_58
*3605 PHY_EDGE_ROW_59_Left_124
*3606 PHY_EDGE_ROW_59_Right_59
*3607 PHY_EDGE_ROW_5_Left_70
*3608 PHY_EDGE_ROW_5_Right_5
*3609 PHY_EDGE_ROW_60_Left_125
*3610 PHY_EDGE_ROW_60_Right_60
*3611 PHY_EDGE_ROW_61_Left_126
*3612 PHY_EDGE_ROW_61_Right_61
*3613 PHY_EDGE_ROW_62_Left_127
*3614 PHY_EDGE_ROW_62_Right_62
*3615 PHY_EDGE_ROW_63_Left_128
*3616 PHY_EDGE_ROW_63_Right_63
*3617 PHY_EDGE_ROW_64_Left_129
*3618 PHY_EDGE_ROW_64_Right_64
*3619 PHY_EDGE_ROW_6_Left_71
*3620 PHY_EDGE_ROW_6_Right_6
*3621 PHY_EDGE_ROW_7_Left_72
*3622 PHY_EDGE_ROW_7_Right_7
*3623 PHY_EDGE_ROW_8_Left_73
*3624 PHY_EDGE_ROW_8_Right_8
*3625 PHY_EDGE_ROW_9_Left_74
*3626 PHY_EDGE_ROW_9_Right_9
*3627 TAP_TAPCELL_ROW_0_130
*3628 TAP_TAPCELL_ROW_0_131
*3629 TAP_TAPCELL_ROW_0_132
*3630 TAP_TAPCELL_ROW_0_133
*3631 TAP_TAPCELL_ROW_0_134
*3632 TAP_TAPCELL_ROW_0_135
*3633 TAP_TAPCELL_ROW_0_136
*3634 TAP_TAPCELL_ROW_0_137
*3635 TAP_TAPCELL_ROW_0_138
*3636 TAP_TAPCELL_ROW_0_139
*3637 TAP_TAPCELL_ROW_0_140
*3638 TAP_TAPCELL_ROW_0_141
*3639 TAP_TAPCELL_ROW_0_142
*3640 TAP_TAPCELL_ROW_0_143
*3641 TAP_TAPCELL_ROW_10_207
*3642 TAP_TAPCELL_ROW_10_208
*3643 TAP_TAPCELL_ROW_10_209
*3644 TAP_TAPCELL_ROW_10_210
*3645 TAP_TAPCELL_ROW_10_211
*3646 TAP_TAPCELL_ROW_10_212
*3647 TAP_TAPCELL_ROW_10_213
*3648 TAP_TAPCELL_ROW_11_214
*3649 TAP_TAPCELL_ROW_11_215
*3650 TAP_TAPCELL_ROW_11_216
*3651 TAP_TAPCELL_ROW_11_217
*3652 TAP_TAPCELL_ROW_11_218
*3653 TAP_TAPCELL_ROW_11_219
*3654 TAP_TAPCELL_ROW_11_220
*3655 TAP_TAPCELL_ROW_12_221
*3656 TAP_TAPCELL_ROW_12_222
*3657 TAP_TAPCELL_ROW_12_223
*3658 TAP_TAPCELL_ROW_12_224
*3659 TAP_TAPCELL_ROW_12_225
*3660 TAP_TAPCELL_ROW_12_226
*3661 TAP_TAPCELL_ROW_12_227
*3662 TAP_TAPCELL_ROW_13_228
*3663 TAP_TAPCELL_ROW_13_229
*3664 TAP_TAPCELL_ROW_13_230
*3665 TAP_TAPCELL_ROW_13_231
*3666 TAP_TAPCELL_ROW_13_232
*3667 TAP_TAPCELL_ROW_13_233
*3668 TAP_TAPCELL_ROW_13_234
*3669 TAP_TAPCELL_ROW_14_235
*3670 TAP_TAPCELL_ROW_14_236
*3671 TAP_TAPCELL_ROW_14_237
*3672 TAP_TAPCELL_ROW_14_238
*3673 TAP_TAPCELL_ROW_14_239
*3674 TAP_TAPCELL_ROW_14_240
*3675 TAP_TAPCELL_ROW_14_241
*3676 TAP_TAPCELL_ROW_15_242
*3677 TAP_TAPCELL_ROW_15_243
*3678 TAP_TAPCELL_ROW_15_244
*3679 TAP_TAPCELL_ROW_15_245
*3680 TAP_TAPCELL_ROW_15_246
*3681 TAP_TAPCELL_ROW_15_247
*3682 TAP_TAPCELL_ROW_15_248
*3683 TAP_TAPCELL_ROW_16_249
*3684 TAP_TAPCELL_ROW_16_250
*3685 TAP_TAPCELL_ROW_16_251
*3686 TAP_TAPCELL_ROW_16_252
*3687 TAP_TAPCELL_ROW_16_253
*3688 TAP_TAPCELL_ROW_16_254
*3689 TAP_TAPCELL_ROW_16_255
*3690 TAP_TAPCELL_ROW_17_256
*3691 TAP_TAPCELL_ROW_17_257
*3692 TAP_TAPCELL_ROW_17_258
*3693 TAP_TAPCELL_ROW_17_259
*3694 TAP_TAPCELL_ROW_17_260
*3695 TAP_TAPCELL_ROW_17_261
*3696 TAP_TAPCELL_ROW_17_262
*3697 TAP_TAPCELL_ROW_18_263
*3698 TAP_TAPCELL_ROW_18_264
*3699 TAP_TAPCELL_ROW_18_265
*3700 TAP_TAPCELL_ROW_18_266
*3701 TAP_TAPCELL_ROW_18_267
*3702 TAP_TAPCELL_ROW_18_268
*3703 TAP_TAPCELL_ROW_18_269
*3704 TAP_TAPCELL_ROW_19_270
*3705 TAP_TAPCELL_ROW_19_271
*3706 TAP_TAPCELL_ROW_19_272
*3707 TAP_TAPCELL_ROW_19_273
*3708 TAP_TAPCELL_ROW_19_274
*3709 TAP_TAPCELL_ROW_19_275
*3710 TAP_TAPCELL_ROW_19_276
*3711 TAP_TAPCELL_ROW_1_144
*3712 TAP_TAPCELL_ROW_1_145
*3713 TAP_TAPCELL_ROW_1_146
*3714 TAP_TAPCELL_ROW_1_147
*3715 TAP_TAPCELL_ROW_1_148
*3716 TAP_TAPCELL_ROW_1_149
*3717 TAP_TAPCELL_ROW_1_150
*3718 TAP_TAPCELL_ROW_20_277
*3719 TAP_TAPCELL_ROW_20_278
*3720 TAP_TAPCELL_ROW_20_279
*3721 TAP_TAPCELL_ROW_20_280
*3722 TAP_TAPCELL_ROW_20_281
*3723 TAP_TAPCELL_ROW_20_282
*3724 TAP_TAPCELL_ROW_20_283
*3725 TAP_TAPCELL_ROW_21_284
*3726 TAP_TAPCELL_ROW_21_285
*3727 TAP_TAPCELL_ROW_21_286
*3728 TAP_TAPCELL_ROW_21_287
*3729 TAP_TAPCELL_ROW_21_288
*3730 TAP_TAPCELL_ROW_21_289
*3731 TAP_TAPCELL_ROW_21_290
*3732 TAP_TAPCELL_ROW_22_291
*3733 TAP_TAPCELL_ROW_22_292
*3734 TAP_TAPCELL_ROW_22_293
*3735 TAP_TAPCELL_ROW_22_294
*3736 TAP_TAPCELL_ROW_22_295
*3737 TAP_TAPCELL_ROW_22_296
*3738 TAP_TAPCELL_ROW_22_297
*3739 TAP_TAPCELL_ROW_23_298
*3740 TAP_TAPCELL_ROW_23_299
*3741 TAP_TAPCELL_ROW_23_300
*3742 TAP_TAPCELL_ROW_23_301
*3743 TAP_TAPCELL_ROW_23_302
*3744 TAP_TAPCELL_ROW_23_303
*3745 TAP_TAPCELL_ROW_23_304
*3746 TAP_TAPCELL_ROW_24_305
*3747 TAP_TAPCELL_ROW_24_306
*3748 TAP_TAPCELL_ROW_24_307
*3749 TAP_TAPCELL_ROW_24_308
*3750 TAP_TAPCELL_ROW_24_309
*3751 TAP_TAPCELL_ROW_24_310
*3752 TAP_TAPCELL_ROW_24_311
*3753 TAP_TAPCELL_ROW_25_312
*3754 TAP_TAPCELL_ROW_25_313
*3755 TAP_TAPCELL_ROW_25_314
*3756 TAP_TAPCELL_ROW_25_315
*3757 TAP_TAPCELL_ROW_25_316
*3758 TAP_TAPCELL_ROW_25_317
*3759 TAP_TAPCELL_ROW_25_318
*3760 TAP_TAPCELL_ROW_26_319
*3761 TAP_TAPCELL_ROW_26_320
*3762 TAP_TAPCELL_ROW_26_321
*3763 TAP_TAPCELL_ROW_26_322
*3764 TAP_TAPCELL_ROW_26_323
*3765 TAP_TAPCELL_ROW_26_324
*3766 TAP_TAPCELL_ROW_26_325
*3767 TAP_TAPCELL_ROW_27_326
*3768 TAP_TAPCELL_ROW_27_327
*3769 TAP_TAPCELL_ROW_27_328
*3770 TAP_TAPCELL_ROW_27_329
*3771 TAP_TAPCELL_ROW_27_330
*3772 TAP_TAPCELL_ROW_27_331
*3773 TAP_TAPCELL_ROW_27_332
*3774 TAP_TAPCELL_ROW_28_333
*3775 TAP_TAPCELL_ROW_28_334
*3776 TAP_TAPCELL_ROW_28_335
*3777 TAP_TAPCELL_ROW_28_336
*3778 TAP_TAPCELL_ROW_28_337
*3779 TAP_TAPCELL_ROW_28_338
*3780 TAP_TAPCELL_ROW_28_339
*3781 TAP_TAPCELL_ROW_29_340
*3782 TAP_TAPCELL_ROW_29_341
*3783 TAP_TAPCELL_ROW_29_342
*3784 TAP_TAPCELL_ROW_29_343
*3785 TAP_TAPCELL_ROW_29_344
*3786 TAP_TAPCELL_ROW_29_345
*3787 TAP_TAPCELL_ROW_29_346
*3788 TAP_TAPCELL_ROW_2_151
*3789 TAP_TAPCELL_ROW_2_152
*3790 TAP_TAPCELL_ROW_2_153
*3791 TAP_TAPCELL_ROW_2_154
*3792 TAP_TAPCELL_ROW_2_155
*3793 TAP_TAPCELL_ROW_2_156
*3794 TAP_TAPCELL_ROW_2_157
*3795 TAP_TAPCELL_ROW_30_347
*3796 TAP_TAPCELL_ROW_30_348
*3797 TAP_TAPCELL_ROW_30_349
*3798 TAP_TAPCELL_ROW_30_350
*3799 TAP_TAPCELL_ROW_30_351
*3800 TAP_TAPCELL_ROW_30_352
*3801 TAP_TAPCELL_ROW_30_353
*3802 TAP_TAPCELL_ROW_31_354
*3803 TAP_TAPCELL_ROW_31_355
*3804 TAP_TAPCELL_ROW_31_356
*3805 TAP_TAPCELL_ROW_31_357
*3806 TAP_TAPCELL_ROW_31_358
*3807 TAP_TAPCELL_ROW_31_359
*3808 TAP_TAPCELL_ROW_31_360
*3809 TAP_TAPCELL_ROW_32_361
*3810 TAP_TAPCELL_ROW_32_362
*3811 TAP_TAPCELL_ROW_32_363
*3812 TAP_TAPCELL_ROW_32_364
*3813 TAP_TAPCELL_ROW_32_365
*3814 TAP_TAPCELL_ROW_32_366
*3815 TAP_TAPCELL_ROW_32_367
*3816 TAP_TAPCELL_ROW_33_368
*3817 TAP_TAPCELL_ROW_33_369
*3818 TAP_TAPCELL_ROW_33_370
*3819 TAP_TAPCELL_ROW_33_371
*3820 TAP_TAPCELL_ROW_33_372
*3821 TAP_TAPCELL_ROW_33_373
*3822 TAP_TAPCELL_ROW_33_374
*3823 TAP_TAPCELL_ROW_34_375
*3824 TAP_TAPCELL_ROW_34_376
*3825 TAP_TAPCELL_ROW_34_377
*3826 TAP_TAPCELL_ROW_34_378
*3827 TAP_TAPCELL_ROW_34_379
*3828 TAP_TAPCELL_ROW_34_380
*3829 TAP_TAPCELL_ROW_34_381
*3830 TAP_TAPCELL_ROW_35_382
*3831 TAP_TAPCELL_ROW_35_383
*3832 TAP_TAPCELL_ROW_35_384
*3833 TAP_TAPCELL_ROW_35_385
*3834 TAP_TAPCELL_ROW_35_386
*3835 TAP_TAPCELL_ROW_35_387
*3836 TAP_TAPCELL_ROW_35_388
*3837 TAP_TAPCELL_ROW_36_389
*3838 TAP_TAPCELL_ROW_36_390
*3839 TAP_TAPCELL_ROW_36_391
*3840 TAP_TAPCELL_ROW_36_392
*3841 TAP_TAPCELL_ROW_36_393
*3842 TAP_TAPCELL_ROW_36_394
*3843 TAP_TAPCELL_ROW_36_395
*3844 TAP_TAPCELL_ROW_37_396
*3845 TAP_TAPCELL_ROW_37_397
*3846 TAP_TAPCELL_ROW_37_398
*3847 TAP_TAPCELL_ROW_37_399
*3848 TAP_TAPCELL_ROW_37_400
*3849 TAP_TAPCELL_ROW_37_401
*3850 TAP_TAPCELL_ROW_37_402
*3851 TAP_TAPCELL_ROW_38_403
*3852 TAP_TAPCELL_ROW_38_404
*3853 TAP_TAPCELL_ROW_38_405
*3854 TAP_TAPCELL_ROW_38_406
*3855 TAP_TAPCELL_ROW_38_407
*3856 TAP_TAPCELL_ROW_38_408
*3857 TAP_TAPCELL_ROW_38_409
*3858 TAP_TAPCELL_ROW_39_410
*3859 TAP_TAPCELL_ROW_39_411
*3860 TAP_TAPCELL_ROW_39_412
*3861 TAP_TAPCELL_ROW_39_413
*3862 TAP_TAPCELL_ROW_39_414
*3863 TAP_TAPCELL_ROW_39_415
*3864 TAP_TAPCELL_ROW_39_416
*3865 TAP_TAPCELL_ROW_3_158
*3866 TAP_TAPCELL_ROW_3_159
*3867 TAP_TAPCELL_ROW_3_160
*3868 TAP_TAPCELL_ROW_3_161
*3869 TAP_TAPCELL_ROW_3_162
*3870 TAP_TAPCELL_ROW_3_163
*3871 TAP_TAPCELL_ROW_3_164
*3872 TAP_TAPCELL_ROW_40_417
*3873 TAP_TAPCELL_ROW_40_418
*3874 TAP_TAPCELL_ROW_40_419
*3875 TAP_TAPCELL_ROW_40_420
*3876 TAP_TAPCELL_ROW_40_421
*3877 TAP_TAPCELL_ROW_40_422
*3878 TAP_TAPCELL_ROW_40_423
*3879 TAP_TAPCELL_ROW_41_424
*3880 TAP_TAPCELL_ROW_41_425
*3881 TAP_TAPCELL_ROW_41_426
*3882 TAP_TAPCELL_ROW_41_427
*3883 TAP_TAPCELL_ROW_41_428
*3884 TAP_TAPCELL_ROW_41_429
*3885 TAP_TAPCELL_ROW_41_430
*3886 TAP_TAPCELL_ROW_42_431
*3887 TAP_TAPCELL_ROW_42_432
*3888 TAP_TAPCELL_ROW_42_433
*3889 TAP_TAPCELL_ROW_42_434
*3890 TAP_TAPCELL_ROW_42_435
*3891 TAP_TAPCELL_ROW_42_436
*3892 TAP_TAPCELL_ROW_42_437
*3893 TAP_TAPCELL_ROW_43_438
*3894 TAP_TAPCELL_ROW_43_439
*3895 TAP_TAPCELL_ROW_43_440
*3896 TAP_TAPCELL_ROW_43_441
*3897 TAP_TAPCELL_ROW_43_442
*3898 TAP_TAPCELL_ROW_43_443
*3899 TAP_TAPCELL_ROW_43_444
*3900 TAP_TAPCELL_ROW_44_445
*3901 TAP_TAPCELL_ROW_44_446
*3902 TAP_TAPCELL_ROW_44_447
*3903 TAP_TAPCELL_ROW_44_448
*3904 TAP_TAPCELL_ROW_44_449
*3905 TAP_TAPCELL_ROW_44_450
*3906 TAP_TAPCELL_ROW_44_451
*3907 TAP_TAPCELL_ROW_45_452
*3908 TAP_TAPCELL_ROW_45_453
*3909 TAP_TAPCELL_ROW_45_454
*3910 TAP_TAPCELL_ROW_45_455
*3911 TAP_TAPCELL_ROW_45_456
*3912 TAP_TAPCELL_ROW_45_457
*3913 TAP_TAPCELL_ROW_45_458
*3914 TAP_TAPCELL_ROW_46_459
*3915 TAP_TAPCELL_ROW_46_460
*3916 TAP_TAPCELL_ROW_46_461
*3917 TAP_TAPCELL_ROW_46_462
*3918 TAP_TAPCELL_ROW_46_463
*3919 TAP_TAPCELL_ROW_46_464
*3920 TAP_TAPCELL_ROW_46_465
*3921 TAP_TAPCELL_ROW_47_466
*3922 TAP_TAPCELL_ROW_47_467
*3923 TAP_TAPCELL_ROW_47_468
*3924 TAP_TAPCELL_ROW_47_469
*3925 TAP_TAPCELL_ROW_47_470
*3926 TAP_TAPCELL_ROW_47_471
*3927 TAP_TAPCELL_ROW_47_472
*3928 TAP_TAPCELL_ROW_48_473
*3929 TAP_TAPCELL_ROW_48_474
*3930 TAP_TAPCELL_ROW_48_475
*3931 TAP_TAPCELL_ROW_48_476
*3932 TAP_TAPCELL_ROW_48_477
*3933 TAP_TAPCELL_ROW_48_478
*3934 TAP_TAPCELL_ROW_48_479
*3935 TAP_TAPCELL_ROW_49_480
*3936 TAP_TAPCELL_ROW_49_481
*3937 TAP_TAPCELL_ROW_49_482
*3938 TAP_TAPCELL_ROW_49_483
*3939 TAP_TAPCELL_ROW_49_484
*3940 TAP_TAPCELL_ROW_49_485
*3941 TAP_TAPCELL_ROW_49_486
*3942 TAP_TAPCELL_ROW_4_165
*3943 TAP_TAPCELL_ROW_4_166
*3944 TAP_TAPCELL_ROW_4_167
*3945 TAP_TAPCELL_ROW_4_168
*3946 TAP_TAPCELL_ROW_4_169
*3947 TAP_TAPCELL_ROW_4_170
*3948 TAP_TAPCELL_ROW_4_171
*3949 TAP_TAPCELL_ROW_50_487
*3950 TAP_TAPCELL_ROW_50_488
*3951 TAP_TAPCELL_ROW_50_489
*3952 TAP_TAPCELL_ROW_50_490
*3953 TAP_TAPCELL_ROW_50_491
*3954 TAP_TAPCELL_ROW_50_492
*3955 TAP_TAPCELL_ROW_50_493
*3956 TAP_TAPCELL_ROW_51_494
*3957 TAP_TAPCELL_ROW_51_495
*3958 TAP_TAPCELL_ROW_51_496
*3959 TAP_TAPCELL_ROW_51_497
*3960 TAP_TAPCELL_ROW_51_498
*3961 TAP_TAPCELL_ROW_51_499
*3962 TAP_TAPCELL_ROW_51_500
*3963 TAP_TAPCELL_ROW_52_501
*3964 TAP_TAPCELL_ROW_52_502
*3965 TAP_TAPCELL_ROW_52_503
*3966 TAP_TAPCELL_ROW_52_504
*3967 TAP_TAPCELL_ROW_52_505
*3968 TAP_TAPCELL_ROW_52_506
*3969 TAP_TAPCELL_ROW_52_507
*3970 TAP_TAPCELL_ROW_53_508
*3971 TAP_TAPCELL_ROW_53_509
*3972 TAP_TAPCELL_ROW_53_510
*3973 TAP_TAPCELL_ROW_53_511
*3974 TAP_TAPCELL_ROW_53_512
*3975 TAP_TAPCELL_ROW_53_513
*3976 TAP_TAPCELL_ROW_53_514
*3977 TAP_TAPCELL_ROW_54_515
*3978 TAP_TAPCELL_ROW_54_516
*3979 TAP_TAPCELL_ROW_54_517
*3980 TAP_TAPCELL_ROW_54_518
*3981 TAP_TAPCELL_ROW_54_519
*3982 TAP_TAPCELL_ROW_54_520
*3983 TAP_TAPCELL_ROW_54_521
*3984 TAP_TAPCELL_ROW_55_522
*3985 TAP_TAPCELL_ROW_55_523
*3986 TAP_TAPCELL_ROW_55_524
*3987 TAP_TAPCELL_ROW_55_525
*3988 TAP_TAPCELL_ROW_55_526
*3989 TAP_TAPCELL_ROW_55_527
*3990 TAP_TAPCELL_ROW_55_528
*3991 TAP_TAPCELL_ROW_56_529
*3992 TAP_TAPCELL_ROW_56_530
*3993 TAP_TAPCELL_ROW_56_531
*3994 TAP_TAPCELL_ROW_56_532
*3995 TAP_TAPCELL_ROW_56_533
*3996 TAP_TAPCELL_ROW_56_534
*3997 TAP_TAPCELL_ROW_56_535
*3998 TAP_TAPCELL_ROW_57_536
*3999 TAP_TAPCELL_ROW_57_537
*4000 TAP_TAPCELL_ROW_57_538
*4001 TAP_TAPCELL_ROW_57_539
*4002 TAP_TAPCELL_ROW_57_540
*4003 TAP_TAPCELL_ROW_57_541
*4004 TAP_TAPCELL_ROW_57_542
*4005 TAP_TAPCELL_ROW_58_543
*4006 TAP_TAPCELL_ROW_58_544
*4007 TAP_TAPCELL_ROW_58_545
*4008 TAP_TAPCELL_ROW_58_546
*4009 TAP_TAPCELL_ROW_58_547
*4010 TAP_TAPCELL_ROW_58_548
*4011 TAP_TAPCELL_ROW_58_549
*4012 TAP_TAPCELL_ROW_59_550
*4013 TAP_TAPCELL_ROW_59_551
*4014 TAP_TAPCELL_ROW_59_552
*4015 TAP_TAPCELL_ROW_59_553
*4016 TAP_TAPCELL_ROW_59_554
*4017 TAP_TAPCELL_ROW_59_555
*4018 TAP_TAPCELL_ROW_59_556
*4019 TAP_TAPCELL_ROW_5_172
*4020 TAP_TAPCELL_ROW_5_173
*4021 TAP_TAPCELL_ROW_5_174
*4022 TAP_TAPCELL_ROW_5_175
*4023 TAP_TAPCELL_ROW_5_176
*4024 TAP_TAPCELL_ROW_5_177
*4025 TAP_TAPCELL_ROW_5_178
*4026 TAP_TAPCELL_ROW_60_557
*4027 TAP_TAPCELL_ROW_60_558
*4028 TAP_TAPCELL_ROW_60_559
*4029 TAP_TAPCELL_ROW_60_560
*4030 TAP_TAPCELL_ROW_60_561
*4031 TAP_TAPCELL_ROW_60_562
*4032 TAP_TAPCELL_ROW_60_563
*4033 TAP_TAPCELL_ROW_61_564
*4034 TAP_TAPCELL_ROW_61_565
*4035 TAP_TAPCELL_ROW_61_566
*4036 TAP_TAPCELL_ROW_61_567
*4037 TAP_TAPCELL_ROW_61_568
*4038 TAP_TAPCELL_ROW_61_569
*4039 TAP_TAPCELL_ROW_61_570
*4040 TAP_TAPCELL_ROW_62_571
*4041 TAP_TAPCELL_ROW_62_572
*4042 TAP_TAPCELL_ROW_62_573
*4043 TAP_TAPCELL_ROW_62_574
*4044 TAP_TAPCELL_ROW_62_575
*4045 TAP_TAPCELL_ROW_62_576
*4046 TAP_TAPCELL_ROW_62_577
*4047 TAP_TAPCELL_ROW_63_578
*4048 TAP_TAPCELL_ROW_63_579
*4049 TAP_TAPCELL_ROW_63_580
*4050 TAP_TAPCELL_ROW_63_581
*4051 TAP_TAPCELL_ROW_63_582
*4052 TAP_TAPCELL_ROW_63_583
*4053 TAP_TAPCELL_ROW_63_584
*4054 TAP_TAPCELL_ROW_64_585
*4055 TAP_TAPCELL_ROW_64_586
*4056 TAP_TAPCELL_ROW_64_587
*4057 TAP_TAPCELL_ROW_64_588
*4058 TAP_TAPCELL_ROW_64_589
*4059 TAP_TAPCELL_ROW_64_590
*4060 TAP_TAPCELL_ROW_64_591
*4061 TAP_TAPCELL_ROW_64_592
*4062 TAP_TAPCELL_ROW_64_593
*4063 TAP_TAPCELL_ROW_64_594
*4064 TAP_TAPCELL_ROW_64_595
*4065 TAP_TAPCELL_ROW_64_596
*4066 TAP_TAPCELL_ROW_64_597
*4067 TAP_TAPCELL_ROW_64_598
*4068 TAP_TAPCELL_ROW_6_179
*4069 TAP_TAPCELL_ROW_6_180
*4070 TAP_TAPCELL_ROW_6_181
*4071 TAP_TAPCELL_ROW_6_182
*4072 TAP_TAPCELL_ROW_6_183
*4073 TAP_TAPCELL_ROW_6_184
*4074 TAP_TAPCELL_ROW_6_185
*4075 TAP_TAPCELL_ROW_7_186
*4076 TAP_TAPCELL_ROW_7_187
*4077 TAP_TAPCELL_ROW_7_188
*4078 TAP_TAPCELL_ROW_7_189
*4079 TAP_TAPCELL_ROW_7_190
*4080 TAP_TAPCELL_ROW_7_191
*4081 TAP_TAPCELL_ROW_7_192
*4082 TAP_TAPCELL_ROW_8_193
*4083 TAP_TAPCELL_ROW_8_194
*4084 TAP_TAPCELL_ROW_8_195
*4085 TAP_TAPCELL_ROW_8_196
*4086 TAP_TAPCELL_ROW_8_197
*4087 TAP_TAPCELL_ROW_8_198
*4088 TAP_TAPCELL_ROW_8_199
*4089 TAP_TAPCELL_ROW_9_200
*4090 TAP_TAPCELL_ROW_9_201
*4091 TAP_TAPCELL_ROW_9_202
*4092 TAP_TAPCELL_ROW_9_203
*4093 TAP_TAPCELL_ROW_9_204
*4094 TAP_TAPCELL_ROW_9_205
*4095 TAP_TAPCELL_ROW_9_206
*4096 _243_
*4097 _244_
*4098 _245_
*4099 _246_
*4100 _247_
*4101 _248_
*4102 _249_
*4103 _250_
*4104 _251_
*4105 _252_
*4106 _253_
*4107 _254_
*4108 _255_
*4109 _256_
*4110 _257_
*4111 _258_
*4112 _259_
*4113 _260_
*4114 _261_
*4115 _262_
*4116 _263_
*4117 _264_
*4118 _265_
*4119 _266_
*4120 _267_
*4121 _268_
*4122 _269_
*4123 _270_
*4124 _271_
*4125 _272_
*4126 _273_
*4127 _274_
*4128 _275_
*4129 _276_
*4130 _277_
*4131 _278_
*4132 _279_
*4133 _280_
*4134 _281_
*4135 _282_
*4136 _283_
*4137 _284_
*4138 _285_
*4139 _286_
*4140 _287_
*4141 _288_
*4142 _289_
*4143 _290_
*4144 _291_
*4145 _292_
*4146 _293_
*4147 _294_
*4148 _295_
*4149 _296_
*4150 _297_
*4151 _298_
*4152 _299_
*4153 _300_
*4154 _301_
*4155 _302_
*4156 _303_
*4157 _304_
*4158 _305_
*4159 _306_
*4160 _307_
*4161 _308_
*4162 _309_
*4163 _310_
*4164 _311_
*4165 _312_
*4166 _313_
*4167 _314_
*4168 _315_
*4169 _316_
*4170 _317_
*4171 _318_
*4172 _319_
*4173 _320_
*4174 _321_
*4175 _322_
*4176 _323_
*4177 _324_
*4178 _325_
*4179 _326_
*4180 _327_
*4181 _328_
*4182 _329_
*4183 _330_
*4184 _331_
*4185 _332_
*4186 _333_
*4187 _334_
*4188 _335_
*4189 _336_
*4190 _337_
*4191 _338_
*4192 _339_
*4193 _340_
*4194 _341_
*4195 _342_
*4196 _343_
*4197 _344_
*4198 _345_
*4199 _346_
*4200 _347_
*4201 _348_
*4202 _349_
*4203 _350_
*4204 _351_
*4205 _352_
*4206 _353_
*4207 _354_
*4208 _355_
*4209 _356_
*4210 _357_
*4211 _358_
*4212 _359_
*4213 _360_
*4214 _361_
*4215 _362_
*4216 _363_
*4217 _364_
*4218 _365_
*4219 _366_
*4220 _367_
*4221 _368_
*4222 _369_
*4223 _370_
*4224 _371_
*4225 _372_
*4226 _373_
*4227 _374_
*4228 _375_
*4229 _376_
*4230 _377_
*4231 _378_
*4232 _379_
*4233 _380_
*4234 _381_
*4235 _382_
*4236 _383_
*4237 _384_
*4238 _385_
*4239 _386_
*4240 _387_
*4241 _388_
*4242 _389_
*4243 _390_
*4244 _391_
*4245 _392_
*4246 _393_
*4247 _394_
*4248 _395_
*4249 _396_
*4250 _397_
*4251 _398_
*4252 _399_
*4253 _400_
*4254 _401_
*4255 _402_
*4256 _403_
*4257 _404_
*4258 _405_
*4259 _406_
*4260 _407_
*4261 _408_
*4262 _409_
*4263 _410_
*4264 _411_
*4265 _412_
*4266 _413_
*4267 _414_
*4268 _415_
*4269 _416_
*4270 _417_
*4271 _418_
*4272 _419_
*4273 _420_
*4274 _421_
*4275 _422_
*4276 _423_
*4277 _424_
*4278 _425_
*4279 _426_
*4280 _427_
*4281 _428_
*4282 _429_
*4283 _430_
*4284 _431_
*4285 _432_
*4286 _433_
*4287 _434_
*4288 _435_
*4289 _436_
*4290 _437_
*4291 _438_
*4292 _439_
*4293 _440_
*4294 _441_
*4295 _442_
*4296 _443_
*4297 _444_
*4298 _445_
*4299 _446_
*4300 _447_
*4301 _448_
*4302 _449_
*4303 _450_
*4304 _451_
*4305 _452_
*4306 _453_
*4307 _454_
*4308 _455_
*4309 _456_
*4310 _457_
*4311 _458_
*4312 _459_
*4313 _460_
*4314 _461_
*4315 _462_
*4316 _463_
*4317 _464_
*4318 _465_
*4319 _466_
*4320 _467_
*4321 _468_
*4322 _469_
*4323 _470_
*4324 _471_
*4325 _472_
*4326 _473_
*4327 _474_
*4328 _475_
*4329 _476_
*4330 _477_
*4331 _478_
*4332 _479_
*4333 _480_
*4334 _481_
*4335 _482_
*4336 _483_
*4337 _484_
*4338 _485_
*4339 _486_
*4340 _487_
*4341 _488_
*4342 _489_
*4343 _490_
*4344 _491_
*4345 _492_
*4346 _493_
*4347 _494_
*4348 _495_
*4349 _496_
*4350 _497_
*4351 _498_
*4352 _499_
*4353 _500_
*4354 _501_
*4355 _502_
*4356 _503_
*4357 _504_
*4358 _505_
*4359 _506_
*4360 _507_
*4361 _508_
*4362 _509_
*4363 _510_
*4364 _511_
*4365 _512_
*4366 _513_
*4367 _514_
*4368 _515_
*4369 _516_
*4370 _517_
*4371 _518_
*4372 _519_
*4373 _520_
*4374 _521_
*4375 _522_
*4376 _523_
*4377 _524_
*4378 _525_
*4379 _526_
*4380 _527_
*4381 _528_
*4382 _529_
*4383 _530_
*4384 _531_
*4385 _532_
*4386 _533_
*4387 _534_
*4388 _535_
*4389 _536_
*4390 _537_
*4391 _538_
*4392 _539_
*4393 _540_
*4394 _541_
*4395 _542_
*4396 _543_
*4397 _544_
*4398 _545_
*4399 _546_
*4400 _547_
*4401 _548_
*4402 _549_
*4403 _550_
*4404 _551_
*4405 _552_
*4406 _553_
*4407 _554_
*4408 _555_
*4409 _556_
*4410 _557_
*4411 _558_
*4412 _559_
*4413 _560_
*4414 _561_
*4415 _562_
*4416 _563_
*4417 _564_
*4418 _565_
*4419 clkbuf_0_clk
*4420 clkbuf_3_0__f_clk
*4421 clkbuf_3_1__f_clk
*4422 clkbuf_3_2__f_clk
*4423 clkbuf_3_3__f_clk
*4424 clkbuf_3_4__f_clk
*4425 clkbuf_3_5__f_clk
*4426 clkbuf_3_6__f_clk
*4427 clkbuf_3_7__f_clk
*4428 clkload0
*4429 clkload1
*4430 clkload2
*4431 clkload3
*4432 clkload4
*4433 clkload5
*4434 clkload6
*4435 fanout12
*4436 fanout13
*4437 hold1
*4438 hold10
*4439 hold100
*4440 hold101
*4441 hold102
*4442 hold103
*4443 hold104
*4444 hold105
*4445 hold106
*4446 hold107
*4447 hold108
*4448 hold109
*4449 hold11
*4450 hold110
*4451 hold111
*4452 hold112
*4453 hold113
*4454 hold114
*4455 hold115
*4456 hold116
*4457 hold117
*4458 hold118
*4459 hold119
*4460 hold12
*4461 hold120
*4462 hold121
*4463 hold122
*4464 hold123
*4465 hold124
*4466 hold125
*4467 hold126
*4468 hold127
*4469 hold128
*4470 hold129
*4471 hold13
*4472 hold130
*4473 hold131
*4474 hold132
*4475 hold133
*4476 hold134
*4477 hold135
*4478 hold136
*4479 hold137
*4480 hold138
*4481 hold139
*4482 hold14
*4483 hold140
*4484 hold141
*4485 hold142
*4486 hold143
*4487 hold144
*4488 hold145
*4489 hold146
*4490 hold147
*4491 hold148
*4492 hold149
*4493 hold15
*4494 hold150
*4495 hold151
*4496 hold152
*4497 hold153
*4498 hold154
*4499 hold155
*4500 hold156
*4501 hold157
*4502 hold158
*4503 hold159
*4504 hold16
*4505 hold160
*4506 hold161
*4507 hold162
*4508 hold163
*4509 hold164
*4510 hold165
*4511 hold166
*4512 hold167
*4513 hold168
*4514 hold169
*4515 hold17
*4516 hold170
*4517 hold18
*4518 hold19
*4519 hold2
*4520 hold20
*4521 hold21
*4522 hold22
*4523 hold23
*4524 hold24
*4525 hold25
*4526 hold26
*4527 hold27
*4528 hold28
*4529 hold29
*4530 hold3
*4531 hold30
*4532 hold31
*4533 hold32
*4534 hold33
*4535 hold34
*4536 hold35
*4537 hold36
*4538 hold37
*4539 hold38
*4540 hold39
*4541 hold4
*4542 hold40
*4543 hold41
*4544 hold42
*4545 hold43
*4546 hold44
*4547 hold45
*4548 hold46
*4549 hold47
*4550 hold48
*4551 hold49
*4552 hold5
*4553 hold50
*4554 hold51
*4555 hold52
*4556 hold53
*4557 hold54
*4558 hold55
*4559 hold56
*4560 hold57
*4561 hold58
*4562 hold59
*4563 hold6
*4564 hold60
*4565 hold61
*4566 hold62
*4567 hold63
*4568 hold64
*4569 hold65
*4570 hold66
*4571 hold67
*4572 hold68
*4573 hold69
*4574 hold7
*4575 hold70
*4576 hold71
*4577 hold72
*4578 hold73
*4579 hold74
*4580 hold75
*4581 hold76
*4582 hold77
*4583 hold78
*4584 hold79
*4585 hold8
*4586 hold80
*4587 hold81
*4588 hold82
*4589 hold83
*4590 hold84
*4591 hold85
*4592 hold86
*4593 hold87
*4594 hold88
*4595 hold89
*4596 hold9
*4597 hold90
*4598 hold91
*4599 hold92
*4600 hold93
*4601 hold94
*4602 hold95
*4603 hold96
*4604 hold97
*4605 hold98
*4606 hold99
*4607 input1
*4608 input2
*4609 output10
*4610 output11
*4611 output3
*4612 output4
*4613 output5
*4614 output6
*4615 output7
*4616 output8
*4617 output9

*PORTS
clk I
led[0] O
led[1] O
led[2] O
led[3] O
led[4] O
led[5] O
led[6] O
led[7] O
sw_0 I
sw_1 I
uart_rxd I
uart_txd O

*D_NET *3 0.0173548
*CONN
*P clk I
*I *4419:A I *D sky130_fd_sc_hd__clkbuf_16
*I *562:DIODE I *D sky130_fd_sc_hd__diode_2
*CAP
1 clk 0.00862996
2 *4419:A 3.84549e-05
3 *562:DIODE 0
4 *3:19 0.00866842
5 *3:19 *133:10 1.79536e-05
*RES
1 clk *3:19 45.6218 
2 *3:19 *562:DIODE 1.6 
3 *3:19 *4419:A 2.05 
*END

*D_NET *4 0.00122119
*CONN
*P led[0] O
*I *4611:X O *D sky130_fd_sc_hd__buf_2
*CAP
1 led[0] 0.00039096
2 *4611:X 0.00039096
3 led[0] led[2] 0.000100439
4 led[0] led[4] 0.000106344
5 led[0] *4154:A1 0.000191954
6 led[0] *445:8 4.05358e-05
*RES
1 *4611:X led[0] 10.0633 
*END

*D_NET *5 0.0019074
*CONN
*P led[1] O
*I *4612:X O *D sky130_fd_sc_hd__buf_2
*CAP
1 led[1] 0.000603938
2 *4612:X 0.000603938
3 led[1] uart_txd 0
4 led[1] *4159:A 0.000376374
5 led[1] *4612:A 0.000187251
6 led[1] *265:130 0.000135903
*RES
1 *4612:X led[1] 13.065 
*END

*D_NET *6 0.000965214
*CONN
*P led[2] O
*I *4613:X O *D sky130_fd_sc_hd__buf_2
*CAP
1 led[2] 0.000328609
2 *4613:X 0.000328609
3 led[2] led[4] 0.000203372
4 led[2] led[5] 0
5 led[2] *4348:D 4.18603e-06
6 led[2] *4541:A 0
7 led[2] *4615:A 0
8 led[0] led[2] 0.000100439
*RES
1 *4613:X led[2] 7.31657 
*END

*D_NET *7 0.00447615
*CONN
*P led[3] O
*I *4614:X O *D sky130_fd_sc_hd__buf_2
*CAP
1 led[3] 0.00135483
2 *4614:X 0.00135483
3 led[3] led[5] 0.000183282
4 led[3] *4160:A1 0.000339868
5 led[3] *4176:A0 7.50252e-05
6 led[3] *4176:S 0
7 led[3] *4179:A1 0.000176664
8 led[3] *4346:D 9.14049e-05
9 led[3] *4348:CLK 0
10 led[3] *4436:A 0
11 led[3] *4578:A 1.9731e-05
12 led[3] *4599:A 0.000132977
13 led[3] *4614:A 0.000268138
14 led[3] *134:111 7.74785e-05
15 led[3] *153:34 3.81842e-05
16 led[3] *153:55 1.80065e-05
17 led[3] *346:10 0.000345733
*RES
1 *4614:X led[3] 22.4377 
*END

*D_NET *8 0.00147327
*CONN
*P led[4] O
*I *4615:X O *D sky130_fd_sc_hd__buf_2
*CAP
1 led[4] 0.000470973
2 *4615:X 0.000470973
3 led[4] led[5] 8.95652e-05
4 led[4] *4154:A1 0
5 led[4] *4348:D 0
6 led[4] *134:93 0.000113174
7 led[4] *134:95 1.88656e-05
8 led[0] led[4] 0.000106344
9 led[2] led[4] 0.000203372
*RES
1 *4615:X led[4] 11.025 
*END

*D_NET *9 0.00272393
*CONN
*P led[5] O
*I *4616:X O *D sky130_fd_sc_hd__buf_2
*CAP
1 led[5] 0.00113173
2 *4616:X 0.00113173
3 led[5] *4160:A1 0
4 led[5] *4161:A1 6.0147e-06
5 led[5] *4347:CLK 4.8854e-05
6 led[5] *4347:D 4.82319e-06
7 led[5] *4348:D 0
8 led[5] *4446:A 4.9253e-06
9 led[5] *4616:A 0.000107521
10 led[5] *489:8 1.54837e-05
11 led[2] led[5] 0
12 led[3] led[5] 0.000183282
13 led[4] led[5] 8.95652e-05
*RES
1 *4616:X led[5] 13.4642 
*END

*D_NET *10 0.0010645
*CONN
*P led[6] O
*I *4617:X O *D sky130_fd_sc_hd__buf_2
*CAP
1 led[6] 0.000532248
2 *4617:X 0.000532248
3 led[6] *4617:A 0
*RES
1 *4617:X led[6] 12.48 
*END

*D_NET *11 0.000813966
*CONN
*P led[7] O
*I *4609:X O *D sky130_fd_sc_hd__buf_2
*CAP
1 led[7] 0.000406983
2 *4609:X 0.000406983
*RES
1 *4609:X led[7] 10.185 
*END

*D_NET *12 0.00405247
*CONN
*P sw_0 I
*I *574:DIODE I *D sky130_fd_sc_hd__diode_2
*I *4607:A I *D sky130_fd_sc_hd__clkbuf_1
*CAP
1 sw_0 0.000780386
2 *574:DIODE 0.000321116
3 *4607:A 9.3685e-05
4 *12:9 0.00119519
5 *574:DIODE *4125:A 0
6 *574:DIODE *4295:A 0.00015974
7 *574:DIODE *4298:A 0.000466558
8 *574:DIODE *4451:A 0
9 *574:DIODE *4452:A 0.00011852
10 *574:DIODE *4456:A 4.61658e-05
11 *574:DIODE *4513:A 7.45625e-05
12 *574:DIODE *134:127 0
13 *4607:A *4298:B 0.000159134
14 *12:9 uart_txd 0.000391594
15 *12:9 *4339:D 0
16 *12:9 *4344:D 6.08203e-05
17 *12:9 *4436:A 0.000185007
18 *12:9 *4451:A 0
*RES
1 sw_0 *12:9 6.84923 
2 *12:9 *4607:A 5.445 
3 *12:9 *574:DIODE 12.06 
*END

*D_NET *14 0.000794207
*CONN
*P uart_rxd I
*I *575:DIODE I *D sky130_fd_sc_hd__diode_2
*I *4608:A I *D sky130_fd_sc_hd__buf_1
*CAP
1 uart_rxd 0.000307333
2 *575:DIODE 7.5377e-05
3 *4608:A 0
4 *14:13 0.00038271
5 *14:13 *434:14 2.87867e-05
*RES
1 uart_rxd *14:13 5.4235 
2 *14:13 *4608:A 1.6 
3 *14:13 *575:DIODE 2.74 
*END

*D_NET *15 0.00256324
*CONN
*P uart_txd O
*I *4610:X O *D sky130_fd_sc_hd__buf_2
*CAP
1 uart_txd 0.000760212
2 *4610:X 0.000760212
3 uart_txd *572:DIODE 0.000150284
4 uart_txd *4156:C1 0
5 uart_txd *4339:D 0
6 uart_txd *4344:D 0.000123204
7 uart_txd *4418:D 3.3814e-05
8 uart_txd *4584:A 0.000293381
9 uart_txd *351:8 5.05437e-05
10 led[1] uart_txd 0
11 *12:9 uart_txd 0.000391594
*RES
1 *4610:X uart_txd 12.476 
*END

*D_NET *16 0.000135627
*CONN
*I *4522:A I *D sky130_fd_sc_hd__dlygate4sd3_1
*I *4124:X O *D sky130_fd_sc_hd__a221o_1
*CAP
1 *4522:A 2.78134e-05
2 *4124:X 2.78134e-05
3 *4522:A *4536:A 4.99619e-05
4 *4522:A *100:338 3.00381e-05
*RES
1 *4124:X *4522:A 4.01 
*END

*D_NET *17 0.000186238
*CONN
*I *4395:D I *D sky130_fd_sc_hd__dfxtp_2
*I *4143:X O *D sky130_fd_sc_hd__a31o_1
*CAP
1 *4395:D 7.31997e-05
2 *4143:X 7.31997e-05
3 *4395:D *151:16 0
4 *4395:D *263:65 2.97004e-06
5 *4395:D *263:78 3.68682e-05
*RES
1 *4143:X *4395:D 8.46375 
*END

*D_NET *18 0.000497831
*CONN
*I *4396:D I *D sky130_fd_sc_hd__dfxtp_2
*I *4145:X O *D sky130_fd_sc_hd__a22o_1
*CAP
1 *4396:D 0.00017421
2 *4145:X 0.00017421
3 *4396:D *4152:B1 5.39718e-05
4 *4396:D *290:29 9.54399e-05
*RES
1 *4145:X *4396:D 10.0387 
*END

*D_NET *19 0.000743306
*CONN
*I *4397:D I *D sky130_fd_sc_hd__dfxtp_4
*I *4152:X O *D sky130_fd_sc_hd__a32o_1
*CAP
1 *4397:D 0.000232597
2 *4152:X 0.000232597
3 *4397:D *4152:A1 0
4 *4397:D *4397:CLK 0.000278111
5 *4397:D *263:78 0
6 *4397:D *290:8 0
*RES
1 *4152:X *4397:D 11.61 
*END

*D_NET *20 0.000648829
*CONN
*I *4452:A I *D sky130_fd_sc_hd__dlygate4sd3_1
*I *4139:X O *D sky130_fd_sc_hd__a221o_1
*CAP
1 *4452:A 0.000256461
2 *4139:X 0.000256461
3 *4452:A *528:DIODE 1.7386e-05
4 *4452:A *134:127 0
5 *574:DIODE *4452:A 0.00011852
*RES
1 *4139:X *4452:A 10.755 
*END

*D_NET *21 0.000472763
*CONN
*I *4508:A I *D sky130_fd_sc_hd__dlygate4sd3_1
*I *4132:X O *D sky130_fd_sc_hd__a31o_1
*CAP
1 *4508:A 9.64883e-05
2 *4132:X 9.64883e-05
3 *4508:A *394:30 0.000279787
*RES
1 *4132:X *4508:A 5.72 
*END

*D_NET *22 0.000109086
*CONN
*I *4479:A I *D sky130_fd_sc_hd__dlygate4sd3_1
*I *4151:X O *D sky130_fd_sc_hd__a22o_1
*CAP
1 *4479:A 4.38474e-05
2 *4151:X 4.38474e-05
3 *4479:A *4151:A2 4.00541e-06
4 *4479:A *4151:B2 1.7386e-05
*RES
1 *4151:X *4479:A 4.01 
*END

*D_NET *23 0.000507903
*CONN
*I *4458:A I *D sky130_fd_sc_hd__dlygate4sd3_1
*I *4147:X O *D sky130_fd_sc_hd__a31o_1
*CAP
1 *4458:A 0.000149547
2 *4147:X 0.000149547
3 *4458:A *4285:C1 9.10513e-05
4 *4458:A *225:10 9.51212e-05
5 *4458:A *362:47 2.26364e-05
*RES
1 *4147:X *4458:A 10.065 
*END

*D_NET *24 0.00153131
*CONN
*I *4585:A I *D sky130_fd_sc_hd__dlygate4sd3_1
*I *4154:X O *D sky130_fd_sc_hd__o21ba_1
*CAP
1 *4585:A 0.000524566
2 *4154:X 0.000524566
3 *4585:A *4154:A1 0
4 *4585:A *4343:D 7.89767e-05
5 *4585:A *4345:D 0
6 *4585:A *4566:A 0
7 *4585:A *4615:A 0.0003175
8 *4585:A *133:166 8.57024e-05
*RES
1 *4154:X *4585:A 16.98 
*END

*D_NET *25 0.000672124
*CONN
*I *4586:A I *D sky130_fd_sc_hd__dlygate4sd3_1
*I *4156:X O *D sky130_fd_sc_hd__o211a_1
*CAP
1 *4586:A 7.34844e-05
2 *4156:X 7.34844e-05
3 *4586:A *4156:A1 0.000308719
4 *4586:A *4156:A2 6.71882e-05
5 *4586:A *4451:A 8.40213e-05
6 *4586:A *134:125 6.52265e-05
*RES
1 *4156:X *4586:A 6.065 
*END

*D_NET *26 0.000433263
*CONN
*I *4565:A I *D sky130_fd_sc_hd__dlygate4sd3_1
*I *4158:X O *D sky130_fd_sc_hd__o211a_1
*CAP
1 *4565:A 0.000213716
2 *4158:X 0.000213716
3 *4565:A *539:DIODE 5.83121e-06
4 *4565:A *4615:A 0
5 *4565:A *495:12 0
*RES
1 *4158:X *4565:A 10.41 
*END

*D_NET *27 0.000759571
*CONN
*I *4569:A I *D sky130_fd_sc_hd__dlygate4sd3_1
*I *4160:X O *D sky130_fd_sc_hd__o211a_1
*CAP
1 *4569:A 0.00016606
2 *4160:X 0.00016606
3 *4569:A *4346:D 7.4027e-05
4 *4569:A *4436:A 6.47594e-05
5 *4569:A *133:114 0.000270409
6 *4569:A *373:12 1.82563e-05
*RES
1 *4160:X *4569:A 11.1 
*END

*D_NET *28 0.00152492
*CONN
*I *4563:A I *D sky130_fd_sc_hd__dlygate4sd3_1
*I *4162:X O *D sky130_fd_sc_hd__a21o_1
*CAP
1 *4563:A 0.000347638
2 *4162:X 0.000347638
3 *4563:A *4162:B1 0.000164352
4 *4563:A *4164:B1 0
5 *4563:A *4348:CLK 0.00015896
6 *4563:A *4348:D 0
7 *4563:A *4578:A 0.00041311
8 *4563:A *100:245 4.66108e-05
9 *4563:A *100:263 4.66108e-05
*RES
1 *4162:X *4563:A 14.22 
*END

*D_NET *29 0.00079922
*CONN
*I *4541:A I *D sky130_fd_sc_hd__dlygate4sd3_1
*I *4164:X O *D sky130_fd_sc_hd__a21o_1
*CAP
1 *4541:A 0.000151794
2 *4164:X 0.000151794
3 *4541:A *4162:A1 1.83847e-05
4 *4541:A *4164:A1 0.000250797
5 *4541:A *4348:D 1.15688e-05
6 *4541:A *4613:A 0.000160635
7 *4541:A *4615:A 5.42473e-05
8 led[2] *4541:A 0
*RES
1 *4164:X *4541:A 11.46 
*END

*D_NET *30 0.000189331
*CONN
*I *4438:A I *D sky130_fd_sc_hd__dlygate4sd3_1
*I *4166:X O *D sky130_fd_sc_hd__a21o_1
*CAP
1 *4438:A 6.09617e-05
2 *4166:X 6.09617e-05
3 *4438:A *4349:D 0
4 *4438:A *511:10 6.74079e-05
*RES
1 *4166:X *4438:A 8.58 
*END

*D_NET *31 0.000386062
*CONN
*I *4504:A I *D sky130_fd_sc_hd__dlygate4sd3_1
*I *4168:X O *D sky130_fd_sc_hd__a21o_1
*CAP
1 *4504:A 0.000153547
2 *4168:X 0.000153547
3 *4504:A *4350:D 0
4 *4504:A *4493:A 7.89689e-05
*RES
1 *4168:X *4504:A 9.975 
*END

*D_NET *32 0.000640867
*CONN
*I *4447:A I *D sky130_fd_sc_hd__dlygate4sd3_1
*I *4172:X O *D sky130_fd_sc_hd__o211a_1
*CAP
1 *4447:A 5.55637e-05
2 *4172:X 5.55637e-05
3 *4447:A *4172:A1 0.000198046
4 *4447:A *362:94 0.000270409
5 *4447:A *373:48 6.12852e-05
*RES
1 *4172:X *4447:A 5.72 
*END

*D_NET *33 0.000162601
*CONN
*I *4602:A I *D sky130_fd_sc_hd__dlygate4sd3_1
*I *4175:X O *D sky130_fd_sc_hd__o211a_1
*CAP
1 *4602:A 2.1894e-05
2 *4175:X 2.1894e-05
3 *4602:A *4583:A 3.31103e-05
4 *4602:A *362:35 8.57024e-05
*RES
1 *4175:X *4602:A 3.995 
*END

*D_NET *34 0.0022468
*CONN
*I *4578:A I *D sky130_fd_sc_hd__dlygate4sd3_1
*I *4178:X O *D sky130_fd_sc_hd__o211a_1
*CAP
1 *4578:A 0.000540155
2 *4178:X 0.000540155
3 *4578:A *4162:B1 0.00023468
4 *4578:A *4164:B1 0
5 *4578:A *4177:A 4.82369e-05
6 *4578:A *4177:B 3.29947e-05
7 *4578:A *4347:D 4.89295e-05
8 *4578:A *4348:CLK 7.25552e-05
9 *4578:A *4353:D 7.00889e-06
10 *4578:A *4577:A 4.89988e-05
11 *4578:A *100:263 4.21973e-05
12 *4578:A *500:10 0.000198046
13 led[3] *4578:A 1.9731e-05
14 *4563:A *4578:A 0.00041311
*RES
1 *4178:X *4578:A 19.035 
*END

*D_NET *35 0.000805383
*CONN
*I *4573:A I *D sky130_fd_sc_hd__dlygate4sd3_1
*I *4181:X O *D sky130_fd_sc_hd__o211a_1
*CAP
1 *4573:A 0.000167358
2 *4181:X 0.000167358
3 *4573:A *551:DIODE 2.11084e-05
4 *4573:A *4177:A 0.000232209
5 *4573:A *4178:A1 1.31227e-05
6 *4573:A *4178:B1 8.97264e-05
7 *4573:A *4178:C1 0.0001145
8 *4573:A *259:64 0
*RES
1 *4181:X *4573:A 11.355 
*END

*D_NET *36 0.000986513
*CONN
*I *4556:A I *D sky130_fd_sc_hd__dlygate4sd3_1
*I *4184:X O *D sky130_fd_sc_hd__o211a_1
*CAP
1 *4556:A 0.000315059
2 *4184:X 0.000315059
3 *4556:A *4184:A1 0.000356395
4 *4556:A *4200:B 0
5 *4556:A *4201:A1 0
*RES
1 *4184:X *4556:A 11.79 
*END

*D_NET *37 0.00037948
*CONN
*I *4580:A I *D sky130_fd_sc_hd__dlygate4sd3_1
*I *4187:X O *D sky130_fd_sc_hd__o211a_1
*CAP
1 *4580:A 0.00012162
2 *4187:X 0.00012162
3 *4580:A *4187:A1 4.70343e-05
4 *4580:A *133:42 3.86529e-05
5 *4580:A *266:46 5.05521e-05
*RES
1 *4187:X *4580:A 9.72 
*END

*D_NET *38 9.40065e-05
*CONN
*I *4445:A I *D sky130_fd_sc_hd__dlygate4sd3_1
*I *4191:X O *D sky130_fd_sc_hd__a31o_1
*CAP
1 *4445:A 7.00326e-06
2 *4191:X 7.00326e-06
3 *4445:A *4189:B1 4.99619e-05
4 *4445:A *4191:B1 3.00381e-05
*RES
1 *4191:X *4445:A 3.65 
*END

*D_NET *39 0.000692468
*CONN
*I *4460:A I *D sky130_fd_sc_hd__dlygate4sd3_1
*I *4193:X O *D sky130_fd_sc_hd__o211a_1
*CAP
1 *4460:A 0.000288059
2 *4193:X 0.000288059
3 *4460:A *4193:A1 5.34747e-05
4 *4460:A *4195:A2 0
5 *4460:A *4210:A 0
6 *4460:A *4358:D 0
7 *4460:A *4449:A 6.28765e-05
*RES
1 *4193:X *4460:A 11.76 
*END

*D_NET *40 0.00076675
*CONN
*I *4359:D I *D sky130_fd_sc_hd__dfxtp_1
*I *4195:X O *D sky130_fd_sc_hd__o211a_1
*CAP
1 *4359:D 0.000274372
2 *4195:X 0.000274372
3 *4359:D *4194:B 0.000122565
4 *4359:D *267:116 9.54399e-05
5 *4359:D *495:10 0
*RES
1 *4195:X *4359:D 11.7487 
*END

*D_NET *41 0.000641532
*CONN
*I *4360:D I *D sky130_fd_sc_hd__dfxtp_1
*I *4197:X O *D sky130_fd_sc_hd__o211a_1
*CAP
1 *4360:D 0.00017173
2 *4197:X 0.00017173
3 *4360:D *4197:A1 4.00541e-06
4 *4360:D *4358:CLK 0.000194169
5 *4360:D *267:118 9.98977e-05
*RES
1 *4197:X *4360:D 6.30875 
*END

*D_NET *42 0.000642403
*CONN
*I *4361:D I *D sky130_fd_sc_hd__dfxtp_1
*I *4199:X O *D sky130_fd_sc_hd__o211a_1
*CAP
1 *4361:D 0.000229759
2 *4199:X 0.000229759
3 *4361:D *4361:CLK 9.27495e-05
4 *4361:D *4369:D 5.2089e-05
5 *4361:D *97:77 0
6 *4361:D *134:83 3.80465e-05
*RES
1 *4199:X *4361:D 11.0737 
*END

*D_NET *43 0.000419515
*CONN
*I *4535:A I *D sky130_fd_sc_hd__dlygate4sd3_1
*I *4201:X O *D sky130_fd_sc_hd__o211a_1
*CAP
1 *4535:A 0.000105202
2 *4201:X 0.000105202
3 *4535:A *4184:A1 0
4 *4535:A *4200:B 0.0001249
5 *4535:A *4201:A1 4.11112e-05
6 *4535:A *267:14 0
7 *4535:A *463:6 3.45679e-05
8 *4535:A *468:14 8.53113e-06
*RES
1 *4201:X *4535:A 9.72 
*END

*D_NET *44 6.92906e-05
*CONN
*I *4533:A I *D sky130_fd_sc_hd__dlygate4sd3_1
*I *4203:X O *D sky130_fd_sc_hd__o211a_1
*CAP
1 *4533:A 1.96262e-05
2 *4203:X 1.96262e-05
3 *4533:A *97:45 3.00381e-05
*RES
1 *4203:X *4533:A 3.65 
*END

*D_NET *45 0.00103772
*CONN
*I *4558:A I *D sky130_fd_sc_hd__dlygate4sd3_1
*I *4205:X O *D sky130_fd_sc_hd__o211a_1
*CAP
1 *4558:A 0.000200317
2 *4205:X 0.000200317
3 *4558:A *4202:A 4.66108e-05
4 *4558:A *4203:C1 0.000318091
5 *4558:A *259:8 0.000120655
6 *4558:A *306:24 0.000151724
*RES
1 *4205:X *4558:A 8.495 
*END

*D_NET *46 0.000737873
*CONN
*I *4365:D I *D sky130_fd_sc_hd__dfxtp_1
*I *4207:X O *D sky130_fd_sc_hd__o211a_1
*CAP
1 *4365:D 0.000249843
2 *4207:X 0.000249843
3 *4365:D *4205:A2 0
4 *4365:D *4205:C1 0
5 *4365:D *4365:CLK 0.000166946
6 *4365:D *133:42 7.1241e-05
7 *4365:D *373:164 0
*RES
1 *4207:X *4365:D 12.1388 
*END

*D_NET *47 0.000201914
*CONN
*I *4366:D I *D sky130_fd_sc_hd__dfxtp_1
*I *4212:X O *D sky130_fd_sc_hd__o211a_1
*CAP
1 *4366:D 5.10552e-05
2 *4212:X 5.10552e-05
3 *4366:D *4210:A 1.43717e-05
4 *4366:D *4366:CLK 3.59997e-05
5 *4366:D *490:10 4.94326e-05
*RES
1 *4212:X *4366:D 8.46375 
*END

*D_NET *48 0.000903685
*CONN
*I *4548:A I *D sky130_fd_sc_hd__dlygate4sd3_1
*I *4214:X O *D sky130_fd_sc_hd__o211a_1
*CAP
1 *4548:A 0.000229777
2 *4214:X 0.000229777
3 *4548:A *4212:A2 0.00011852
4 *4548:A *4212:C1 0.000141599
5 *4548:A *4213:A 0
6 *4548:A *4376:CLK 8.87475e-05
7 *4548:A *4560:A 0
8 *4548:A *177:72 9.52646e-05
*RES
1 *4214:X *4548:A 12.105 
*END

*D_NET *49 0.000498655
*CONN
*I *4368:D I *D sky130_fd_sc_hd__dfxtp_1
*I *4216:X O *D sky130_fd_sc_hd__o211a_1
*CAP
1 *4368:D 0.000152878
2 *4216:X 0.000152878
3 *4368:D *4192:A 2.61299e-05
4 *4368:D *266:151 9.30787e-05
5 *4368:D *476:16 7.36892e-05
*RES
1 *4216:X *4368:D 9.79875 
*END

*D_NET *50 8.68287e-05
*CONN
*I *4540:A I *D sky130_fd_sc_hd__dlygate4sd3_1
*I *4218:X O *D sky130_fd_sc_hd__o211a_1
*CAP
1 *4540:A 1.84334e-05
2 *4218:X 1.84334e-05
3 *4540:A *4199:A1 4.99619e-05
*RES
1 *4218:X *4540:A 3.65 
*END

*D_NET *51 0.000499318
*CONN
*I *4537:A I *D sky130_fd_sc_hd__dlygate4sd3_1
*I *4220:X O *D sky130_fd_sc_hd__o211a_1
*CAP
1 *4537:A 9.63774e-05
2 *4220:X 9.63774e-05
3 *4537:A *4217:A 0.000124007
4 *4537:A *4220:C1 0.000122337
5 *4537:A *4532:A 0
6 *4537:A *461:25 6.02202e-05
*RES
1 *4220:X *4537:A 9.72 
*END

*D_NET *52 0.000468574
*CONN
*I *4371:D I *D sky130_fd_sc_hd__dfxtp_1
*I *4222:X O *D sky130_fd_sc_hd__o211a_1
*CAP
1 *4371:D 0.000123212
2 *4222:X 0.000123212
3 *4371:D *4371:CLK 4.82863e-05
4 *4371:D *4372:D 9.5433e-05
5 *4371:D *134:83 2.63256e-05
6 *4371:D *266:79 5.21046e-05
*RES
1 *4222:X *4371:D 9.69375 
*END

*D_NET *53 0.000206068
*CONN
*I *4527:A I *D sky130_fd_sc_hd__dlygate4sd3_1
*I *4224:X O *D sky130_fd_sc_hd__o211a_1
*CAP
1 *4527:A 6.84351e-05
2 *4224:X 6.84351e-05
3 *4527:A *177:27 0
4 *4527:A *178:10 1.71013e-05
5 *4527:A *178:12 5.20968e-05
*RES
1 *4224:X *4527:A 8.58 
*END

*D_NET *54 0.00166015
*CONN
*I *4482:A I *D sky130_fd_sc_hd__dlygate4sd3_1
*I *4226:X O *D sky130_fd_sc_hd__o211a_1
*CAP
1 *4482:A 0.00045191
2 *4226:X 0.00045191
3 *4482:A *4226:C1 0.000180373
4 *4482:A *4471:A 0.000575954
*RES
1 *4226:X *4482:A 11.6 
*END

*D_NET *55 0.00031933
*CONN
*I *4374:D I *D sky130_fd_sc_hd__dfxtp_1
*I *4230:X O *D sky130_fd_sc_hd__and3_1
*CAP
1 *4374:D 6.98077e-05
2 *4230:X 6.98077e-05
3 *4374:D *4230:C 9.53428e-06
4 *4374:D *4231:A3 9.02583e-05
5 *4374:D *4374:CLK 7.99219e-05
*RES
1 *4230:X *4374:D 5.225 
*END

*D_NET *56 0.000430594
*CONN
*I *4375:D I *D sky130_fd_sc_hd__dfxtp_1
*I *4233:X O *D sky130_fd_sc_hd__and3b_1
*CAP
1 *4375:D 9.25106e-05
2 *4233:X 9.25106e-05
3 *4375:D *4233:C 2.49909e-05
4 *4375:D *4559:A 0.000137571
5 *4375:D *188:10 4.82319e-06
6 *4375:D *488:47 7.81876e-05
*RES
1 *4233:X *4375:D 9.42375 
*END

*D_NET *57 0.00089232
*CONN
*I *4376:D I *D sky130_fd_sc_hd__dfxtp_1
*I *4236:X O *D sky130_fd_sc_hd__and3_1
*CAP
1 *4376:D 0.000378405
2 *4236:X 0.000378405
3 *4376:D *4140:D_N 1.0183e-05
4 *4376:D *4234:A 5.57779e-05
5 *4376:D *192:57 0
6 *4376:D *270:10 0
7 *4376:D *357:8 6.95505e-05
8 *4376:D *380:10 0
*RES
1 *4236:X *4376:D 13.7587 
*END

*D_NET *58 0.000167728
*CONN
*I *4443:A I *D sky130_fd_sc_hd__dlygate4sd3_1
*I *4239:X O *D sky130_fd_sc_hd__and3_1
*CAP
1 *4443:A 8.38641e-05
2 *4239:X 8.38641e-05
*RES
1 *4239:X *4443:A 4.355 
*END

*D_NET *59 0.000507246
*CONN
*I *4554:A I *D sky130_fd_sc_hd__dlygate4sd3_1
*I *4241:X O *D sky130_fd_sc_hd__o211a_1
*CAP
1 *4554:A 0.000115852
2 *4241:X 0.000115852
3 *4554:A *4133:A_N 3.57349e-05
4 *4554:A *4241:A1 0.000239807
*RES
1 *4241:X *4554:A 5.72 
*END

*D_NET *60 0.000505692
*CONN
*I *4379:D I *D sky130_fd_sc_hd__dfxtp_1
*I *4244:X O *D sky130_fd_sc_hd__and3b_1
*CAP
1 *4379:D 0.000252846
2 *4244:X 0.000252846
3 *4379:D *134:40 0
4 *4379:D *273:10 0
5 *4379:D *460:50 0
*RES
1 *4244:X *4379:D 11.0437 
*END

*D_NET *61 0.00179695
*CONN
*I *4595:A I *D sky130_fd_sc_hd__dlygate4sd3_1
*I *4247:Y O *D sky130_fd_sc_hd__nor2_1
*CAP
1 *4595:A 0.000707182
2 *4247:Y 0.000707182
3 *4595:A *4245:A2 2.50702e-05
4 *4595:A *4245:A3 0.000200148
5 *4595:A *4247:A 2.54431e-05
6 *4595:A *4247:B 2.75229e-05
7 *4595:A *4594:A 2.75229e-05
8 *4595:A *200:6 7.68745e-05
*RES
1 *4247:Y *4595:A 12.665 
*END

*D_NET *62 0.000113956
*CONN
*I *4582:A I *D sky130_fd_sc_hd__dlygate4sd3_1
*I *4249:Y O *D sky130_fd_sc_hd__a21oi_1
*CAP
1 *4582:A 4.64236e-05
2 *4249:Y 4.64236e-05
3 *4582:A *510:14 2.11084e-05
*RES
1 *4249:Y *4582:A 4.01 
*END

*D_NET *63 0.00138478
*CONN
*I *4382:D I *D sky130_fd_sc_hd__dfxtp_1
*I *4252:X O *D sky130_fd_sc_hd__and3b_1
*CAP
1 *4382:D 0.000309651
2 *4252:X 0.000309651
3 *4382:D *4252:C 0.000256626
4 *4382:D *4255:B 9.6227e-05
5 *4382:D *4420:A 0.000108659
6 *4382:D *140:18 9.03432e-05
7 *4382:D *200:37 0
8 *4382:D *260:96 0.000213619
*RES
1 *4252:X *4382:D 15.5588 
*END

*D_NET *64 0.000381891
*CONN
*I *4470:A I *D sky130_fd_sc_hd__dlygate4sd3_1
*I *4255:Y O *D sky130_fd_sc_hd__nor2_1
*CAP
1 *4470:A 8.27932e-05
2 *4255:Y 8.27932e-05
3 *4470:A *4255:B 0.00011852
4 *4470:A *200:37 6.74079e-05
5 *4470:A *434:20 3.03775e-05
*RES
1 *4255:Y *4470:A 9.375 
*END

*D_NET *65 0.000622144
*CONN
*I *4467:A I *D sky130_fd_sc_hd__dlygate4sd3_1
*I *4258:Y O *D sky130_fd_sc_hd__nor2_1
*CAP
1 *4467:A 5.03206e-05
2 *4258:Y 5.03206e-05
3 *4467:A *4258:B 0.000279787
4 *4467:A *434:18 0.00012657
5 *4467:A *434:20 0.000115146
*RES
1 *4258:Y *4467:A 6.065 
*END

*D_NET *66 0.000593761
*CONN
*I *4385:D I *D sky130_fd_sc_hd__dfxtp_1
*I *4261:Y O *D sky130_fd_sc_hd__nor2_1
*CAP
1 *4385:D 0.000224382
2 *4261:Y 0.000224382
3 *4385:D *4261:A 1.61831e-05
4 *4385:D *4261:B 5.05437e-05
5 *4385:D *4385:CLK 7.82691e-05
6 *4385:D *207:36 0
7 *4385:D *260:24 0
*RES
1 *4261:Y *4385:D 10.695 
*END

*D_NET *67 0.000516225
*CONN
*I *4496:A I *D sky130_fd_sc_hd__dlygate4sd3_1
*I *4264:Y O *D sky130_fd_sc_hd__nor2_1
*CAP
1 *4496:A 0.000107542
2 *4264:Y 0.000107542
3 *4496:A *4262:C 5.73568e-06
4 *4496:A *4264:A 8.40213e-05
5 *4496:A *4266:A2 0.000186393
6 *4496:A *410:14 2.49909e-05
*RES
1 *4264:Y *4496:A 5.72 
*END

*D_NET *68 0.00029442
*CONN
*I *4462:A I *D sky130_fd_sc_hd__dlygate4sd3_1
*I *4267:Y O *D sky130_fd_sc_hd__nor2_1
*CAP
1 *4462:A 9.09685e-05
2 *4267:Y 9.09685e-05
3 *4462:A *4267:A 6.33733e-05
4 *4462:A *4267:B 4.91097e-05
*RES
1 *4267:Y *4462:A 9.03 
*END

*D_NET *69 0.00032735
*CONN
*I *4505:A I *D sky130_fd_sc_hd__dlygate4sd3_1
*I *4270:Y O *D sky130_fd_sc_hd__nor2_1
*CAP
1 *4505:A 0.000111643
2 *4270:Y 0.000111643
3 *4505:A *4270:B 0.000104065
4 *4505:A *215:10 0
5 *4505:A *262:16 0
*RES
1 *4270:Y *4505:A 9.375 
*END

*D_NET *70 0.000350108
*CONN
*I *4477:A I *D sky130_fd_sc_hd__dlygate4sd3_1
*I *4273:Y O *D sky130_fd_sc_hd__nor2_1
*CAP
1 *4477:A 0.000141281
2 *4273:Y 0.000141281
3 *4477:A *4273:B 2.75145e-05
4 *4477:A *4274:C 0
5 *4477:A *217:10 2.67022e-05
6 *4477:A *274:8 1.33293e-05
*RES
1 *4273:Y *4477:A 9.375 
*END

*D_NET *71 0.00034622
*CONN
*I *4455:A I *D sky130_fd_sc_hd__dlygate4sd3_1
*I *4276:Y O *D sky130_fd_sc_hd__nor2_1
*CAP
1 *4455:A 0.00017311
2 *4276:Y 0.00017311
3 *4455:A *4276:A 0
*RES
1 *4276:Y *4455:A 9.885 
*END

*D_NET *72 0.00178225
*CONN
*I *4598:A I *D sky130_fd_sc_hd__dlygate4sd3_1
*I *4278:Y O *D sky130_fd_sc_hd__a21oi_1
*CAP
1 *4598:A 0.000465431
2 *4278:Y 0.000465431
3 *4598:A *4275:B1 0.000235568
4 *4598:A *4276:A 2.84137e-05
5 *4598:A *4279:B1 4.40812e-05
6 *4598:A *4281:B 0
7 *4598:A *4349:CLK 0
8 *4598:A *219:17 0.000312176
9 *4598:A *262:73 4.01778e-05
10 *4598:A *262:82 0
11 *4598:A *344:10 8.78735e-05
12 *4598:A *344:12 5.02217e-05
13 *4598:A *344:14 5.28781e-05
*RES
1 *4278:Y *4598:A 17.58 
*END

*D_NET *73 0.000874734
*CONN
*I *4486:A I *D sky130_fd_sc_hd__dlygate4sd3_1
*I *4281:X O *D sky130_fd_sc_hd__and3_1
*CAP
1 *4486:A 0.000322972
2 *4281:X 0.000322972
3 *4486:A *4281:C 2.11084e-05
4 *4486:A *4485:A 6.97118e-05
5 *4486:A *140:72 0.00013797
*RES
1 *4281:X *4486:A 8.84 
*END

*D_NET *74 0.00126578
*CONN
*I *4519:A I *D sky130_fd_sc_hd__dlygate4sd3_1
*I *4282:X O *D sky130_fd_sc_hd__or2_1
*CAP
1 *4519:A 0.000466956
2 *4282:X 0.000466956
3 *4519:A *4282:B 1.17309e-05
4 *4519:A *4329:A 0.000120655
5 *4519:A *4546:A 2.16917e-05
6 *4519:A *100:20 0.000150059
7 *4519:A *100:22 2.77283e-05
8 *4519:A *252:33 0
*RES
1 *4282:X *4519:A 13.515 
*END

*D_NET *75 0.000339882
*CONN
*I *4398:D I *D sky130_fd_sc_hd__dfxtp_1
*I *4283:X O *D sky130_fd_sc_hd__or2_1
*CAP
1 *4398:D 0.000135628
2 *4283:X 0.000135628
3 *4398:D *4252:B 0
4 *4398:D *4283:A 1.7386e-05
5 *4398:D *4398:CLK 1.43717e-05
6 *4398:D *140:18 0
7 *4398:D *259:116 3.68682e-05
*RES
1 *4283:X *4398:D 9.42375 
*END

*D_NET *76 0.000751951
*CONN
*I *4520:A I *D sky130_fd_sc_hd__dlygate4sd3_1
*I *4284:X O *D sky130_fd_sc_hd__a31o_1
*CAP
1 *4520:A 0.000195986
2 *4284:X 0.000195986
3 *4520:A *4151:A2 1.15688e-05
4 *4520:A *4189:A1 7.60965e-05
5 *4520:A *100:79 0.000272313
*RES
1 *4284:X *4520:A 11.76 
*END

*D_NET *77 0.00120161
*CONN
*I *4499:A I *D sky130_fd_sc_hd__dlygate4sd3_1
*I *4290:X O *D sky130_fd_sc_hd__and3b_1
*CAP
1 *4499:A 0.000193333
2 *4290:X 0.000193333
3 *4499:A *4125:C 3.66286e-05
4 *4499:A *4288:B1 0.000279787
5 *4499:A *4400:D 4.94404e-05
6 *4499:A *4498:A 0
7 *4499:A *130:68 0.000345665
8 *4499:A *228:8 0.000103423
*RES
1 *4290:X *4499:A 13.485 
*END

*D_NET *78 0.000654684
*CONN
*I *4401:D I *D sky130_fd_sc_hd__dfxtp_1
*I *4293:X O *D sky130_fd_sc_hd__and3b_1
*CAP
1 *4401:D 0.000184834
2 *4293:X 0.000184834
3 *4401:D *4290:B 1.03423e-05
4 *4401:D *4293:C 2.50049e-05
5 *4401:D *4402:CLK 0.000110161
6 *4401:D *228:8 0
7 *4401:D *228:14 0
8 *4401:D *265:18 0.000139508
*RES
1 *4293:X *4401:D 10.8038 
*END

*D_NET *79 0.000260292
*CONN
*I *4402:D I *D sky130_fd_sc_hd__dfxtp_1
*I *4296:X O *D sky130_fd_sc_hd__and3b_1
*CAP
1 *4402:D 9.23467e-05
2 *4296:X 9.23467e-05
3 *4402:D *4296:C 1.70733e-05
4 *4402:D *4298:A 3.54965e-05
5 *4402:D *4402:CLK 2.30292e-05
*RES
1 *4296:X *4402:D 4.92875 
*END

*D_NET *80 0.00135337
*CONN
*I *4513:A I *D sky130_fd_sc_hd__dlygate4sd3_1
*I *4298:X O *D sky130_fd_sc_hd__and2_1
*CAP
1 *4513:A 0.000443457
2 *4298:X 0.000443457
3 *4513:A *4295:A 0
4 *4513:A *4298:A 0.000329021
5 *4513:A *4403:CLK 0
6 *4513:A *4403:D 0
7 *4513:A *311:12 6.28765e-05
8 *574:DIODE *4513:A 7.45625e-05
*RES
1 *4298:X *4513:A 16.185 
*END

*D_NET *81 0.00038065
*CONN
*I *4404:D I *D sky130_fd_sc_hd__dfxtp_1
*I *4301:X O *D sky130_fd_sc_hd__and3b_1
*CAP
1 *4404:D 9.87755e-05
2 *4301:X 9.87755e-05
3 *4404:D *4303:B1 4.18603e-06
4 *4404:D *130:55 8.58415e-05
5 *4404:D *234:8 9.30717e-05
*RES
1 *4301:X *4404:D 9.15375 
*END

*D_NET *82 0.000679385
*CONN
*I *4517:A I *D sky130_fd_sc_hd__dlygate4sd3_1
*I *4303:Y O *D sky130_fd_sc_hd__a21oi_1
*CAP
1 *4517:A 0.000185478
2 *4303:Y 0.000185478
3 *4517:A *4303:A1 5.062e-06
4 *4517:A *4303:B1 0.000298442
5 *4517:A *4405:D 0
6 *4517:A *4406:CLK 4.9253e-06
7 *4517:A *264:14 0
*RES
1 *4303:Y *4517:A 11.07 
*END

*D_NET *83 0.000866406
*CONN
*I *4474:A I *D sky130_fd_sc_hd__dlygate4sd3_1
*I *4307:X O *D sky130_fd_sc_hd__and3b_1
*CAP
1 *4474:A 0.000333273
2 *4307:X 0.000333273
3 *4474:A *4303:A1 0.000158965
4 *4474:A *4304:B1 0
5 *4474:A *4307:B 4.11678e-06
6 *4474:A *4406:D 0
7 *4474:A *4473:A 3.67779e-05
*RES
1 *4307:X *4474:A 11.445 
*END

*D_NET *84 8.68287e-05
*CONN
*I *4439:A I *D sky130_fd_sc_hd__dlygate4sd3_1
*I *4309:X O *D sky130_fd_sc_hd__o211a_1
*CAP
1 *4439:A 1.84334e-05
2 *4309:X 1.84334e-05
3 *4439:A *4308:A 4.99619e-05
*RES
1 *4309:X *4439:A 3.65 
*END

*D_NET *85 0.000442421
*CONN
*I *4492:A I *D sky130_fd_sc_hd__dlygate4sd3_1
*I *4312:X O *D sky130_fd_sc_hd__and3b_1
*CAP
1 *4492:A 0.000213798
2 *4312:X 0.000213798
3 *4492:A *4312:C 0
4 *4492:A *144:68 1.48249e-05
*RES
1 *4312:X *4492:A 9.72 
*END

*D_NET *86 0.000824757
*CONN
*I *4589:A I *D sky130_fd_sc_hd__dlygate4sd3_1
*I *4315:Y O *D sky130_fd_sc_hd__nor2_1
*CAP
1 *4589:A 0.00012773
2 *4315:Y 0.00012773
3 *4589:A *4314:A1 0.000198046
4 *4589:A *4314:A2 0.000163199
5 *4589:A *4588:A 2.66586e-05
6 *4589:A *242:48 0.000132647
7 *4589:A *261:46 1.61831e-05
8 *4589:A *516:14 3.25635e-05
*RES
1 *4315:Y *4589:A 7.115 
*END

*D_NET *87 0.000791404
*CONN
*I *4592:A I *D sky130_fd_sc_hd__dlygate4sd3_1
*I *4318:Y O *D sky130_fd_sc_hd__nor2_1
*CAP
1 *4592:A 0.000326051
2 *4318:Y 0.000326051
3 *4592:A *4318:B 4.05674e-06
4 *4592:A *4408:CLK 6.97118e-05
5 *4592:A *4606:A 0
6 *4592:A *239:12 6.55328e-05
*RES
1 *4318:Y *4592:A 11.895 
*END

*D_NET *88 0.000147007
*CONN
*I *4525:A I *D sky130_fd_sc_hd__dlygate4sd3_1
*I *4321:Y O *D sky130_fd_sc_hd__nor2_1
*CAP
1 *4525:A 4.05201e-05
2 *4321:Y 4.05201e-05
3 *4525:A *4321:A 1.56428e-05
4 *4525:A *4322:B1 4.66742e-05
5 *4525:A *247:12 3.64998e-06
*RES
1 *4321:Y *4525:A 3.995 
*END

*D_NET *89 0.000135627
*CONN
*I *4529:A I *D sky130_fd_sc_hd__dlygate4sd3_1
*I *4323:Y O *D sky130_fd_sc_hd__a21oi_1
*CAP
1 *4529:A 2.78134e-05
2 *4323:Y 2.78134e-05
3 *4529:A *4322:A1 3.00381e-05
4 *4529:A *4322:A2 4.99619e-05
*RES
1 *4323:Y *4529:A 4.01 
*END

*D_NET *90 0.000488481
*CONN
*I *4501:A I *D sky130_fd_sc_hd__dlygate4sd3_1
*I *4326:X O *D sky130_fd_sc_hd__and3b_1
*CAP
1 *4501:A 0.000115081
2 *4326:X 0.000115081
3 *4501:A *4322:A2 3.26889e-05
4 *4501:A *4326:B 5.05437e-05
5 *4501:A *247:29 1.08758e-05
6 *4501:A *251:12 4.99619e-05
7 *4501:A *458:46 0.000114248
*RES
1 *4326:X *4501:A 6.08 
*END

*D_NET *91 0.000227271
*CONN
*I *4546:A I *D sky130_fd_sc_hd__dlygate4sd3_1
*I *4329:Y O *D sky130_fd_sc_hd__nor2_1
*CAP
1 *4546:A 3.73248e-05
2 *4329:Y 3.73248e-05
3 *4546:A *4282:B 5.83121e-06
4 *4546:A *4329:A 8.49205e-05
5 *4546:A *100:20 4.01778e-05
6 *4519:A *4546:A 2.16917e-05
*RES
1 *4329:Y *4546:A 4.34 
*END

*D_NET *92 0.00105486
*CONN
*I *4543:A I *D sky130_fd_sc_hd__dlygate4sd3_1
*I *4331:Y O *D sky130_fd_sc_hd__a21oi_1
*CAP
1 *4543:A 0.00025965
2 *4331:Y 0.00025965
3 *4543:A *4167:A1 2.97473e-05
4 *4543:A *4331:A1 8.88715e-05
5 *4543:A *4333:A 8.97564e-05
6 *4543:A *4333:B 6.77501e-05
7 *4543:A *4399:CLK 3.64998e-06
8 *4543:A *4399:D 3.68682e-05
9 *4543:A *4415:CLK 4.82919e-05
10 *4543:A *252:37 0.000122331
11 *4543:A *256:10 4.82919e-05
*RES
1 *4331:Y *4543:A 13.095 
*END

*D_NET *93 0.00108862
*CONN
*I *4489:A I *D sky130_fd_sc_hd__dlygate4sd3_1
*I *4334:X O *D sky130_fd_sc_hd__and3_1
*CAP
1 *4489:A 0.000316795
2 *4334:X 0.000316795
3 *4489:A *4334:B 0
4 *4489:A *4335:A1 7.06865e-05
5 *4489:A *4335:A3 0.000164352
6 *4489:A *4488:A 6.28843e-05
7 *4489:A *471:8 8.26692e-05
8 *4489:A *471:12 7.44375e-05
*RES
1 *4334:X *4489:A 13.14 
*END

*D_NET *94 0.000596683
*CONN
*I *4604:A I *D sky130_fd_sc_hd__dlygate4sd3_1
*I *4336:X O *D sky130_fd_sc_hd__o211a_1
*CAP
1 *4604:A 0.000139724
2 *4336:X 0.000139724
3 *4604:A *4336:A1 0.000198934
4 *4604:A *4417:D 2.75229e-05
5 *4604:A *144:122 9.07793e-05
*RES
1 *4336:X *4604:A 6.41 
*END

*D_NET *95 0.00361252
*CONN
*I *4483:A I *D sky130_fd_sc_hd__dlygate4sd3_1
*I *4338:X O *D sky130_fd_sc_hd__or3_1
*CAP
1 *4483:A 0.000996529
2 *4338:X 0.000996529
3 *4483:A *4337:B2 1.34503e-05
4 *4483:A *4337:C1 0.000145752
5 *4483:A *4338:A 0.000229536
6 *4483:A *4338:B 4.43682e-05
7 *4483:A *4418:D 9.20316e-05
8 *4483:A *4425:A 8.23457e-05
9 *4483:A *4480:A 0.000324167
10 *4483:A *4481:A 8.73389e-06
11 *4483:A *100:193 1.23238e-05
12 *4483:A *265:10 0.000305651
13 *4483:A *335:12 0.000145752
14 *4483:A *362:47 0.000215348
*RES
1 *4338:X *4483:A 23.865 
*END

*D_NET *96 0.00104545
*CONN
*I *4336:A1 I *D sky130_fd_sc_hd__o211a_1
*I *4096:Y O *D sky130_fd_sc_hd__inv_2
*CAP
1 *4336:A1 0.0001939
2 *4096:Y 0.0001939
3 *4336:A1 *4151:A2 0
4 *4336:A1 *144:122 0.000313846
5 *4336:A1 *259:14 0.000137571
6 *4336:A1 *259:92 3.64998e-06
7 *4336:A1 *350:6 3.64998e-06
8 *4604:A *4336:A1 0.000198934
*RES
1 *4096:Y *4336:A1 12.15 
*END

*D_NET *97 0.0135199
*CONN
*I *4227:A I *D sky130_fd_sc_hd__and3_1
*I *4135:C1 I *D sky130_fd_sc_hd__a211oi_4
*I *4207:A2 I *D sky130_fd_sc_hd__o211a_1
*I *4195:A2 I *D sky130_fd_sc_hd__o211a_1
*I *4197:A2 I *D sky130_fd_sc_hd__o211a_1
*I *4193:A2 I *D sky130_fd_sc_hd__o211a_1
*I *4199:A2 I *D sky130_fd_sc_hd__o211a_1
*I *4201:A2 I *D sky130_fd_sc_hd__o211a_1
*I *4203:A2 I *D sky130_fd_sc_hd__o211a_1
*I *4205:A2 I *D sky130_fd_sc_hd__o211a_1
*I *4097:Y O *D sky130_fd_sc_hd__inv_2
*CAP
1 *4227:A 0.000156637
2 *4135:C1 0
3 *4207:A2 0
4 *4195:A2 0.00033978
5 *4197:A2 1.97286e-05
6 *4193:A2 0.000105616
7 *4199:A2 0
8 *4201:A2 1.55346e-05
9 *4203:A2 0
10 *4205:A2 0.000438397
11 *4097:Y 0
12 *97:103 0.000442347
13 *97:88 0.000380013
14 *97:77 0.00076394
15 *97:62 0.00101694
16 *97:45 0.00127145
17 *97:24 0.00128082
18 *97:22 0.000395801
19 *97:12 0.000552944
20 *97:6 0.00031378
21 *4193:A2 *4193:B1 0.000157584
22 *4193:A2 *4197:A1 1.61831e-05
23 *4195:A2 *4195:A1 0.000210598
24 *4195:A2 *4195:B1 6.90476e-05
25 *4195:A2 *4195:C1 1.65192e-05
26 *4195:A2 *4358:CLK 0.000120655
27 *4195:A2 *479:10 9.8296e-05
28 *4197:A2 *4195:B1 3.60648e-06
29 *4197:A2 *4358:CLK 0
30 *4197:A2 *362:185 9.50342e-06
31 *4201:A2 *4201:B1 9.53428e-06
32 *4205:A2 *4205:C1 8.8266e-05
33 *4205:A2 *259:8 6.90876e-05
34 *4205:A2 *306:24 0
35 *4205:A2 *373:164 0.000229518
36 *4205:A2 *373:173 8.7152e-06
37 *4227:A *4136:C 0.000187071
38 *4227:A *4227:C 0
39 *4227:A *460:12 2.05583e-05
40 *4227:A *460:25 0.000204463
41 *4227:A *460:42 0.000139245
42 *4227:A *488:47 0
43 *97:12 *4135:B1 0.000117832
44 *97:12 *4136:C 0.000162325
45 *97:12 *131:12 0
46 *97:12 *133:10 4.40355e-05
47 *97:12 *180:19 0
48 *97:12 *460:12 9.68787e-05
49 *97:12 *460:109 4.80285e-05
50 *97:22 *555:DIODE 0.000197264
51 *97:22 *4133:B 6.23206e-05
52 *97:22 *4211:B 0.000140912
53 *97:22 *4471:A 0
54 *97:22 *4536:A 0.000124007
55 *97:22 *131:12 0
56 *97:22 *133:10 0.000441839
57 *97:22 *180:19 0
58 *97:22 *259:160 9.80032e-06
59 *97:22 *460:126 0.000147705
60 *97:45 *4203:A1 2.57174e-05
61 *97:45 *4203:B1 2.31547e-05
62 *97:45 *4205:A1 0.00015896
63 *97:45 *4207:A1 0
64 *97:45 *4373:D 0.000198945
65 *97:45 *298:10 0.000110691
66 *97:45 *373:173 1.0145e-05
67 *97:45 *373:216 0.000123515
68 *97:45 *486:6 0.000201508
69 *97:62 *4201:C1 0.000127933
70 *97:62 *4203:A1 3.15611e-05
71 *97:62 *4203:B1 7.68886e-05
72 *97:62 *4203:C1 4.99619e-05
73 *97:62 *373:355 1.33293e-05
74 *97:62 *373:359 8.45738e-05
75 *97:77 *4181:A2 1.91597e-05
76 *97:77 *4181:C1 4.66108e-05
77 *97:77 *4362:D 4.94326e-05
78 *97:77 *4369:D 0
79 *97:77 *267:14 8.48193e-05
80 *97:77 *267:38 7.25036e-05
81 *97:77 *362:170 1.73877e-05
82 *97:77 *373:343 9.50342e-06
83 *97:77 *373:355 0.000375389
84 *97:77 *460:179 0
85 *97:77 *491:12 0.000333763
86 *97:88 *4193:C1 0.000116165
87 *97:88 *4197:C1 0.000117832
88 *97:88 *362:170 4.18603e-06
89 *97:88 *362:185 9.87988e-05
90 *97:103 *4193:B1 0.000114024
91 *97:103 *4195:B1 4.82863e-05
92 *4361:D *97:77 0
93 *4365:D *4205:A2 0
94 *4460:A *4195:A2 0
95 *4533:A *97:45 3.00381e-05
*RES
1 *4097:Y *97:6 3.6 
2 *97:6 *97:12 6.47 
3 *97:12 *97:22 13.975 
4 *97:22 *97:24 2 
5 *97:24 *4205:A2 11.205 
6 *97:24 *97:45 16.865 
7 *97:45 *4203:A2 1.6 
8 *97:45 *97:62 8.115 
9 *97:62 *4201:A2 1.96 
10 *97:62 *97:77 15.74 
11 *97:77 *4199:A2 3.6 
12 *97:77 *97:88 6.695 
13 *97:88 *4193:A2 3.7 
14 *97:88 *97:103 3.7175 
15 *97:103 *4197:A2 4.0875 
16 *97:103 *4195:A2 13.7575 
17 *97:22 *4207:A2 1.6 
18 *97:12 *4135:C1 1.6 
19 *97:6 *4227:A 8.04 
*END

*D_NET *98 0.000700001
*CONN
*I *4153:A1 I *D sky130_fd_sc_hd__a21o_1
*I *4098:Y O *D sky130_fd_sc_hd__inv_2
*CAP
1 *4153:A1 0.000175792
2 *4098:Y 0.000175792
3 *4153:A1 *537:DIODE 0.00015802
4 *4153:A1 *4153:A2 0.00011971
5 *4153:A1 *267:101 7.06865e-05
*RES
1 *4098:Y *4153:A1 10.005 
*END

*D_NET *99 0.00046472
*CONN
*I *4227:B I *D sky130_fd_sc_hd__and3_1
*I *4099:Y O *D sky130_fd_sc_hd__inv_2
*CAP
1 *4227:B 0.000155015
2 *4099:Y 0.000155015
3 *4227:B *4375:CLK 6.77501e-05
4 *4227:B *373:270 3.86529e-05
5 *4227:B *460:42 4.82863e-05
6 *4227:B *488:47 0
*RES
1 *4099:Y *4227:B 9.555 
*END

*D_NET *100 0.0311209
*CONN
*I *555:DIODE I *D sky130_fd_sc_hd__diode_2
*I *525:DIODE I *D sky130_fd_sc_hd__diode_2
*I *4211:B I *D sky130_fd_sc_hd__nor2_2
*I *4124:C1 I *D sky130_fd_sc_hd__a221o_1
*I *4144:A I *D sky130_fd_sc_hd__nor2_4
*I *531:DIODE I *D sky130_fd_sc_hd__diode_2
*I *4165:B1 I *D sky130_fd_sc_hd__a21o_1
*I *545:DIODE I *D sky130_fd_sc_hd__diode_2
*I *4150:A I *D sky130_fd_sc_hd__nor2_4
*I *541:DIODE I *D sky130_fd_sc_hd__diode_2
*I *4153:B1 I *D sky130_fd_sc_hd__a21o_1
*I *537:DIODE I *D sky130_fd_sc_hd__diode_2
*I *4163:B1 I *D sky130_fd_sc_hd__a21o_1
*I *4161:B1 I *D sky130_fd_sc_hd__a21o_1
*I *543:DIODE I *D sky130_fd_sc_hd__diode_2
*I *4338:A I *D sky130_fd_sc_hd__or3_1
*I *561:DIODE I *D sky130_fd_sc_hd__diode_2
*I *4285:B1 I *D sky130_fd_sc_hd__a2111o_1
*I *4146:A I *D sky130_fd_sc_hd__nor3_1
*I *533:DIODE I *D sky130_fd_sc_hd__diode_2
*I *528:DIODE I *D sky130_fd_sc_hd__diode_2
*I *4139:C1 I *D sky130_fd_sc_hd__a221o_1
*I *560:DIODE I *D sky130_fd_sc_hd__diode_2
*I *534:DIODE I *D sky130_fd_sc_hd__diode_2
*I *524:DIODE I *D sky130_fd_sc_hd__diode_2
*I *547:DIODE I *D sky130_fd_sc_hd__diode_2
*I *4167:B1 I *D sky130_fd_sc_hd__a21o_1
*I *4282:A I *D sky130_fd_sc_hd__or2_1
*I *557:DIODE I *D sky130_fd_sc_hd__diode_2
*I *558:DIODE I *D sky130_fd_sc_hd__diode_2
*I *4283:A I *D sky130_fd_sc_hd__or2_1
*I *4100:Y O *D sky130_fd_sc_hd__inv_4
*CAP
1 *555:DIODE 0.000450304
2 *525:DIODE 0
3 *4211:B 7.07109e-05
4 *4124:C1 0
5 *4144:A 1.38876e-05
6 *531:DIODE 7.99656e-05
7 *4165:B1 0.000133919
8 *545:DIODE 0
9 *4150:A 0
10 *541:DIODE 0
11 *4153:B1 1.95087e-05
12 *537:DIODE 0.000188133
13 *4163:B1 0.000486593
14 *4161:B1 0
15 *543:DIODE 0
16 *4338:A 9.05528e-05
17 *561:DIODE 0
18 *4285:B1 0
19 *4146:A 0
20 *533:DIODE 0
21 *528:DIODE 0.000111301
22 *4139:C1 2.08101e-05
23 *560:DIODE 0
24 *534:DIODE 0
25 *524:DIODE 0
26 *547:DIODE 0
27 *4167:B1 2.08101e-05
28 *4282:A 0
29 *557:DIODE 0
30 *558:DIODE 0
31 *4283:A 9.92999e-05
32 *4100:Y 0
33 *100:338 0.000475292
34 *100:328 0.000565071
35 *100:317 0.000293319
36 *100:315 0.000180399
37 *100:313 0.000586029
38 *100:295 0.000170949
39 *100:291 0.000234612
40 *100:263 0.000698313
41 *100:245 0.000571172
42 *100:217 0.000486593
43 *100:215 0.000162855
44 *100:206 0.000506786
45 *100:193 0.0013476
46 *100:174 0.000942469
47 *100:135 0.000492598
48 *100:127 0.000571352
49 *100:123 0.000380614
50 *100:117 0.000215269
51 *100:115 0.000401002
52 *100:106 0.00135164
53 *100:90 0.00129782
54 *100:79 0.000530787
55 *100:66 0.000350719
56 *100:59 1.17375e-05
57 *100:57 0.000173234
58 *100:24 0.000301205
59 *100:22 0.000293456
60 *100:20 0.000683918
61 *100:8 0.000748703
62 *100:4 0.000246903
63 *528:DIODE *4125:A 0.000260432
64 *528:DIODE *4139:A2 1.2818e-05
65 *528:DIODE *4139:B2 2.65402e-05
66 *528:DIODE *4297:B 1.56428e-05
67 *531:DIODE *259:160 0.000124895
68 *537:DIODE *4153:A2 4.30228e-05
69 *537:DIODE *4158:A1 0.000108858
70 *537:DIODE *4561:A 0.000120655
71 *537:DIODE *491:6 4.77757e-05
72 *555:DIODE *4204:B 0.00012657
73 *555:DIODE *4205:A1 0
74 *555:DIODE *4206:B 1.71207e-05
75 *555:DIODE *4207:A1 7.35729e-05
76 *555:DIODE *4207:C1 3.86607e-05
77 *555:DIODE *373:173 0
78 *555:DIODE *460:109 7.47284e-05
79 *555:DIODE *460:126 2.10673e-05
80 *4144:A *4144:B 4.99619e-05
81 *4153:B1 *4153:A2 3.50152e-06
82 *4163:B1 *4164:B1 4.88478e-05
83 *4163:B1 *4178:B1 0.000196048
84 *4163:B1 *4353:D 3.54025e-05
85 *4163:B1 *4570:A 3.04704e-05
86 *4163:B1 *4614:A 8.58063e-05
87 *4163:B1 *133:108 0.000188371
88 *4163:B1 *259:64 0
89 *4163:B1 *267:65 0.000221832
90 *4165:B1 *133:23 8.65961e-05
91 *4165:B1 *133:42 0.000105764
92 *4211:B *4133:B 5.53249e-06
93 *4211:B *133:10 2.23485e-05
94 *4211:B *259:160 0
95 *4211:B *465:8 6.47594e-05
96 *4338:A *4338:B 1.91597e-05
97 *4338:A *4338:C 0.000155497
98 *100:8 *252:33 0.000191243
99 *100:8 *252:37 1.85674e-05
100 *100:20 *4168:B1 4.82919e-05
101 *100:20 *4282:B 8.57024e-05
102 *100:20 *4414:D 8.53113e-06
103 *100:20 *252:12 0
104 *100:20 *252:33 7.35813e-05
105 *100:57 *4100:A 0.000182349
106 *100:57 *4333:C 0
107 *100:66 *4100:A 4.82919e-05
108 *100:66 *4206:A 2.75229e-05
109 *100:79 *4100:A 0.00012657
110 *100:79 *4151:A2 0.000314459
111 *100:79 *4189:A1 0
112 *100:79 *4206:A 0.000610197
113 *100:79 *4284:A1 7.35729e-05
114 *100:79 *373:132 1.1561e-05
115 *100:79 *373:145 0.000607673
116 *100:90 *4189:A1 2.67184e-05
117 *100:90 *4189:A2 2.86623e-05
118 *100:90 *4189:C1 2.49909e-05
119 *100:90 *130:16 4.18603e-06
120 *100:90 *264:117 0
121 *100:90 *373:70 5.23362e-05
122 *100:90 *373:72 0.000114492
123 *100:90 *373:74 4.21314e-05
124 *100:106 *4101:A 1.08758e-05
125 *100:106 *4341:D 8.23394e-05
126 *100:106 *4603:A 3.03775e-05
127 *100:106 *130:16 1.01661e-05
128 *100:106 *144:10 0.00011852
129 *100:106 *335:12 5.76361e-05
130 *100:106 *373:74 0.000143266
131 *100:115 *4101:A 1.91597e-05
132 *100:115 *4337:C1 0.000272978
133 *100:115 *335:12 2.86265e-06
134 *100:117 *4156:B1 6.02123e-05
135 *100:117 *360:75 0.000104287
136 *100:123 *4126:B 5.00005e-05
137 *100:123 *4146:B 6.82663e-05
138 *100:123 *4156:B1 5.53249e-06
139 *100:123 *4285:A2 0
140 *100:123 *4285:C1 7.23602e-05
141 *100:123 *4286:B 0
142 *100:123 *360:75 9.50342e-06
143 *100:127 *4132:A3 0
144 *100:127 *4285:A2 0
145 *100:127 *4286:B 0
146 *100:127 *228:8 0
147 *100:127 *265:12 0
148 *100:127 *362:70 2.32724e-05
149 *100:127 *367:14 0
150 *100:127 *423:10 3.39064e-05
151 *100:135 *4125:A 0.000411615
152 *100:135 *4125:C 0.000351732
153 *100:135 *4125:D_N 0.000123592
154 *100:135 *4297:B 1.19928e-05
155 *100:135 *372:21 0.000148893
156 *100:174 *4102:A 8.49205e-05
157 *100:174 *4156:B1 0.000122885
158 *100:174 *360:75 0.000220672
159 *100:193 *4102:A 4.82919e-05
160 *100:193 *4146:B 9.50342e-06
161 *100:193 *4156:A1 0
162 *100:193 *4156:B1 1.82476e-05
163 *100:193 *4337:A2 0.000316038
164 *100:193 *4337:B2 7.1476e-05
165 *100:193 *4338:B 9.14155e-05
166 *100:193 *4481:A 0.000345733
167 *100:193 *259:53 4.9968e-05
168 *100:193 *265:93 9.3193e-05
169 *100:206 *4156:A1 0
170 *100:206 *4346:D 0
171 *100:206 *4348:CLK 3.05373e-05
172 *100:206 *4352:CLK 0.000198279
173 *100:206 *4352:D 0.000139933
174 *100:206 *4436:A 3.49733e-05
175 *100:206 *4600:A 0
176 *100:206 *133:114 0.000158574
177 *100:206 *134:115 0.000156113
178 *100:206 *265:93 0.000135916
179 *100:206 *495:12 0
180 *100:215 *4348:CLK 8.42441e-05
181 *100:215 *133:114 3.5425e-05
182 *100:215 *133:134 1.38321e-05
183 *100:215 *133:147 9.50342e-06
184 *100:245 *4348:CLK 8.97564e-05
185 *100:245 *133:147 0.000152821
186 *100:263 *4154:B1_N 0.000113572
187 *100:263 *4158:A1 2.68464e-05
188 *100:263 *4158:C1 0.000137029
189 *100:263 *4161:A1 3.57924e-05
190 *100:263 *4345:CLK 4.21973e-05
191 *100:263 *4530:A 0.00010596
192 *100:263 *267:6 0.000120655
193 *100:263 *267:59 0
194 *100:263 *267:101 0
195 *100:263 *495:12 0.000240262
196 *100:263 *500:10 0.000162318
197 *100:291 *4100:A 2.14129e-05
198 *100:291 *4206:B 4.5783e-05
199 *100:291 *4207:C1 3.67779e-05
200 *100:295 *133:42 1.34503e-05
201 *100:313 *4206:B 0.000194523
202 *100:313 *4207:C1 0.000200845
203 *100:317 *259:160 0.000271314
204 *100:328 *4394:D 0
205 *100:328 *133:10 2.59981e-05
206 *100:328 *151:16 0
207 *100:338 *4124:A1 1.17309e-05
208 *100:338 *4124:B2 1.12578e-05
209 *100:338 *4144:B 3.07153e-05
210 *100:338 *4536:A 0.000409427
211 *100:338 *259:160 0.000276441
212 *100:338 *287:14 1.02931e-05
213 *4153:A1 *537:DIODE 0.00015802
214 *4398:D *4283:A 1.7386e-05
215 *4452:A *528:DIODE 1.7386e-05
216 *4483:A *4338:A 0.000229536
217 *4483:A *100:193 1.23238e-05
218 *4519:A *100:20 0.000150059
219 *4519:A *100:22 2.77283e-05
220 *4520:A *100:79 0.000272313
221 *4522:A *100:338 3.00381e-05
222 *4546:A *100:20 4.01778e-05
223 *4563:A *100:245 4.66108e-05
224 *4563:A *100:263 4.66108e-05
225 *4578:A *100:263 4.21973e-05
226 *97:22 *555:DIODE 0.000197264
227 *97:22 *4211:B 0.000140912
*RES
1 *4100:Y *100:4 1.6 
2 *100:4 *100:8 3.225 
3 *100:8 *100:20 12.745 
4 *100:20 *100:22 1.485 
5 *100:22 *100:24 2.865 
6 *100:24 *4283:A 3.085 
7 *100:24 *558:DIODE 1.6 
8 *100:22 *557:DIODE 1.6 
9 *100:20 *4282:A 1.6 
10 *100:8 *4167:B1 1.96 
11 *100:4 *100:57 4.145 
12 *100:57 *100:59 2 
13 *100:59 *547:DIODE 1.6 
14 *100:59 *100:66 0.45 
15 *100:66 *524:DIODE 1.6 
16 *100:66 *100:79 18.385 
17 *100:79 *534:DIODE 1.6 
18 *100:79 *100:90 5.54 
19 *100:90 *100:106 17.615 
20 *100:106 *560:DIODE 1.6 
21 *100:106 *100:115 5.21 
22 *100:115 *100:117 1.38 
23 *100:117 *100:123 3.3 
24 *100:123 *100:127 5.42 
25 *100:127 *100:135 8.685 
26 *100:135 *4139:C1 1.96 
27 *100:135 *528:DIODE 4.465 
28 *100:127 *533:DIODE 1.6 
29 *100:123 *4146:A 3.6 
30 *100:117 *4285:B1 3.6 
31 *100:115 *100:174 5.45 
32 *100:174 *561:DIODE 1.6 
33 *100:174 *100:193 17.955 
34 *100:193 *4338:A 6.135 
35 *100:193 *100:206 10.305 
36 *100:206 *543:DIODE 3.6 
37 *100:206 *100:215 1.89 
38 *100:215 *100:217 2 
39 *100:217 *4161:B1 1.6 
40 *100:217 *4163:B1 15.725 
41 *100:215 *100:245 4.34 
42 *100:245 *100:263 19.535 
43 *100:263 *537:DIODE 5.845 
44 *100:263 *4153:B1 1.96 
45 *100:245 *541:DIODE 1.6 
46 *100:90 *4150:A 3.6 
47 *100:57 *100:291 1.38 
48 *100:291 *100:295 2.45 
49 *100:295 *545:DIODE 1.6 
50 *100:295 *4165:B1 4.405 
51 *100:291 *100:313 4.185 
52 *100:313 *100:315 2 
53 *100:315 *100:317 2.52 
54 *100:317 *531:DIODE 2.74 
55 *100:317 *100:328 2.615 
56 *100:328 *100:338 10.595 
57 *100:338 *4144:A 2.05 
58 *100:338 *4124:C1 1.6 
59 *100:328 *4211:B 5.745 
60 *100:315 *525:DIODE 1.6 
61 *100:313 *555:DIODE 14.44 
*END

*D_NET *101 0.00171904
*CONN
*I *4337:C1 I *D sky130_fd_sc_hd__o221a_1
*I *4101:Y O *D sky130_fd_sc_hd__inv_2
*CAP
1 *4337:C1 0.000404757
2 *4101:Y 0.000404757
3 *4337:C1 *4337:B1 0.000198559
4 *4337:C1 *4418:D 0.000119246
5 *4337:C1 *4425:A 8.23457e-05
6 *4337:C1 *259:53 8.12462e-06
7 *4337:C1 *335:12 8.25258e-05
8 *4483:A *4337:C1 0.000145752
9 *100:115 *4337:C1 0.000272978
*RES
1 *4101:Y *4337:C1 15.93 
*END

*D_NET *102 0.00158562
*CONN
*I *4337:A2 I *D sky130_fd_sc_hd__o221a_1
*I *4146:B I *D sky130_fd_sc_hd__nor3_1
*I *4102:Y O *D sky130_fd_sc_hd__inv_2
*CAP
1 *4337:A2 0.000135736
2 *4146:B 0.000190972
3 *4102:Y 0
4 *102:4 0.000326708
5 *4146:B *4156:B1 0.00015445
6 *4146:B *4286:B 5.13155e-05
7 *4146:B *259:42 7.3664e-05
8 *4146:B *259:53 6.44741e-05
9 *4146:B *265:10 1.14559e-05
10 *4146:B *265:12 1.82476e-05
11 *4337:A2 *4337:B1 0.00012695
12 *4337:A2 *4337:B2 3.7837e-05
13 *100:123 *4146:B 6.82663e-05
14 *100:193 *4146:B 9.50342e-06
15 *100:193 *4337:A2 0.000316038
*RES
1 *4102:Y *102:4 1.6 
2 *102:4 *4146:B 10.805 
3 *102:4 *4337:A2 5.185 
*END

*D_NET *103 0.00230502
*CONN
*I *4118:A I *D sky130_fd_sc_hd__nor4_1
*I *4108:A I *D sky130_fd_sc_hd__or4_2
*I *4121:A I *D sky130_fd_sc_hd__or4_1
*I *4103:X O *D sky130_fd_sc_hd__or2_1
*CAP
1 *4118:A 0
2 *4108:A 0.000142007
3 *4121:A 0.000167738
4 *4103:X 0.00010336
5 *103:12 0.000329234
6 *103:10 0.000122849
7 *4108:A *4114:C_N 0.00030615
8 *4108:A *4118:B 4.66108e-05
9 *4108:A *4118:D 7.8192e-05
10 *4108:A *276:33 4.82863e-05
11 *4108:A *276:39 0.000393317
12 *4121:A *4109:A 0.000117814
13 *4121:A *4113:A 9.30717e-05
14 *4121:A *4113:C 0
15 *4121:A *4114:C_N 0.000116151
16 *4121:A *4122:B1_N 4.35348e-05
17 *103:10 *4113:A 0.00010596
18 *103:10 *4135:A2 1.83847e-05
19 *103:10 *134:24 0
20 *103:12 *4113:A 4.31106e-05
21 *103:12 *4114:C_N 2.92496e-05
22 *103:12 *134:24 0
*RES
1 *4103:X *103:10 5.43 
2 *103:10 *103:12 0.615 
3 *103:12 *4121:A 7.53 
4 *103:12 *4108:A 8.805 
5 *103:10 *4118:A 3.6 
*END

*D_NET *104 0.000201554
*CONN
*I *4108:B I *D sky130_fd_sc_hd__or4_2
*I *4104:X O *D sky130_fd_sc_hd__or4b_1
*CAP
1 *4108:B 5.74818e-05
2 *4104:X 5.74818e-05
3 *4108:B *276:39 8.65905e-05
*RES
1 *4104:X *4108:B 3.995 
*END

*D_NET *105 0.00259217
*CONN
*I *4251:A I *D sky130_fd_sc_hd__and2_1
*I *4256:C I *D sky130_fd_sc_hd__and4_1
*I *4253:B I *D sky130_fd_sc_hd__and3_1
*I *4105:X O *D sky130_fd_sc_hd__and2_1
*CAP
1 *4251:A 0.000150962
2 *4256:C 2.66157e-05
3 *4253:B 0.000145884
4 *4105:X 8.18497e-05
5 *105:14 0.000446368
6 *105:8 0.00050668
7 *4251:A *4420:A 0.000347911
8 *4253:B *4256:A 8.53113e-06
9 *4253:B *4256:D 4.21973e-05
10 *4253:B *4257:A2 9.51151e-07
11 *4253:B *200:37 8.65961e-05
12 *4253:B *205:8 3.40521e-05
13 *4256:C *4256:B 4.82863e-05
14 *4256:C *4256:D 8.65905e-05
15 *105:8 *4257:A2 4.9968e-05
16 *105:8 *281:23 4.89727e-05
17 *105:8 *282:19 0
18 *105:14 *4256:A 0.000266605
19 *105:14 *4257:A1 0
20 *105:14 *4257:A2 0.000213147
21 *105:14 *282:19 0
*RES
1 *4105:X *105:8 5.235 
2 *105:8 *105:14 6.27 
3 *105:14 *4253:B 6.315 
4 *105:14 *4256:C 4.395 
5 *105:8 *4251:A 6.81 
*END

*D_NET *106 0.000797007
*CONN
*I *4551:A I *D sky130_fd_sc_hd__dlygate4sd3_1
*I *4106:Y O *D sky130_fd_sc_hd__nand4b_1
*CAP
1 *4551:A 0.000283815
2 *4106:Y 0.000283815
3 *4551:A *4106:C 3.67779e-05
4 *4551:A *4114:D_N 0
5 *4551:A *4121:B 0
6 *4551:A *279:18 0
7 *4551:A *282:43 4.94404e-05
8 *4551:A *283:75 0.000143159
*RES
1 *4106:Y *4551:A 11.9325 
*END

*D_NET *107 0.00084013
*CONN
*I *4108:D I *D sky130_fd_sc_hd__or4_2
*I *4107:X O *D sky130_fd_sc_hd__or4b_1
*CAP
1 *4108:D 0.000278337
2 *4107:X 0.000278337
3 *4108:D *4104:A 4.43871e-06
4 *4108:D *4107:A 0
5 *4108:D *4108:C 6.02202e-05
6 *4108:D *4119:D_N 1.73877e-05
7 *4108:D *4121:C 1.01661e-05
8 *4108:D *4121:D 0.000191243
*RES
1 *4107:X *4108:D 11.7 
*END

*D_NET *108 0.00452636
*CONN
*I *4135:A1 I *D sky130_fd_sc_hd__a211oi_4
*I *4553:A I *D sky130_fd_sc_hd__dlygate4sd3_1
*I *4108:X O *D sky130_fd_sc_hd__or4_2
*CAP
1 *4135:A1 0.000553061
2 *4553:A 2.89361e-05
3 *4108:X 0.000693361
4 *108:12 0.00127536
5 *4135:A1 *4135:A2 0.000611612
6 *4135:A1 *4241:A2 0.000501133
7 *4135:A1 *290:29 8.40213e-05
8 *4135:A1 *460:6 5.78094e-05
9 *108:12 *4118:D 0.000573379
10 *108:12 *118:10 0.000147685
11 *108:12 *200:23 0
*RES
1 *4108:X *108:12 14.855 
2 *108:12 *4553:A 2.215 
3 *108:12 *4135:A1 14.26 
*END

*D_NET *109 0.000843013
*CONN
*I *4113:A I *D sky130_fd_sc_hd__or4_2
*I *4109:Y O *D sky130_fd_sc_hd__nand2_1
*CAP
1 *4113:A 0.000166291
2 *4109:Y 0.000166291
3 *4113:A *4113:C 2.37234e-05
4 *4113:A *4135:A2 1.08758e-05
5 *4113:A *134:24 0
6 *4113:A *276:33 0.000222813
7 *4113:A *277:35 1.08758e-05
8 *4121:A *4113:A 9.30717e-05
9 *103:10 *4113:A 0.00010596
10 *103:12 *4113:A 4.31106e-05
*RES
1 *4109:Y *4113:A 11.415 
*END

*D_NET *110 0.000125232
*CONN
*I *4113:B I *D sky130_fd_sc_hd__or4_2
*I *4110:X O *D sky130_fd_sc_hd__or4b_1
*CAP
1 *4113:B 4.2348e-05
2 *4110:X 4.2348e-05
3 *4113:B *277:18 4.05358e-05
*RES
1 *4110:X *4113:B 8.07 
*END

*D_NET *111 0.000963426
*CONN
*I *4113:C I *D sky130_fd_sc_hd__or4_2
*I *4111:X O *D sky130_fd_sc_hd__or4b_1
*CAP
1 *4113:C 0.000269142
2 *4111:X 0.000269142
3 *4113:C *4109:A 7.4027e-05
4 *4113:C *4114:A 0.000161623
5 *4113:C *4114:C_N 0
6 *4113:C *4114:D_N 0.00013264
7 *4113:C *4121:C 0
8 *4113:C *276:33 3.31282e-05
9 *4113:C *480:32 0
10 *4113:A *4113:C 2.37234e-05
11 *4121:A *4113:C 0
*RES
1 *4111:X *4113:C 12.66 
*END

*D_NET *112 0.00161168
*CONN
*I *4113:D I *D sky130_fd_sc_hd__or4_2
*I *4112:X O *D sky130_fd_sc_hd__or4b_1
*CAP
1 *4113:D 0.000390664
2 *4112:X 0.000390664
3 *4113:D *4104:A 0.0001249
4 *4113:D *4117:B 9.54399e-05
5 *4113:D *4118:D 4.66108e-05
6 *4113:D *4119:B 2.17931e-05
7 *4113:D *4119:C_N 0.000237243
8 *4113:D *274:20 9.71067e-05
9 *4113:D *277:35 0.000207263
*RES
1 *4112:X *4113:D 15.33 
*END

*D_NET *113 0.0027208
*CONN
*I *4135:A2 I *D sky130_fd_sc_hd__a211oi_4
*I *4113:X O *D sky130_fd_sc_hd__or4_2
*CAP
1 *4135:A2 0.000503554
2 *4113:X 0.000503554
3 *4135:A2 *4103:B 0.000120655
4 *4135:A2 *134:14 0.000801294
5 *4135:A2 *277:35 1.85674e-05
6 *4135:A2 *290:29 8.23457e-05
7 *4135:A2 *460:6 4.99619e-05
8 *4113:A *4135:A2 1.08758e-05
9 *4135:A1 *4135:A2 0.000611612
10 *103:10 *4135:A2 1.83847e-05
*RES
1 *4113:X *4135:A2 18.845 
*END

*D_NET *114 0.000200728
*CONN
*I *4118:B I *D sky130_fd_sc_hd__nor4_1
*I *4114:X O *D sky130_fd_sc_hd__or4bb_1
*CAP
1 *4118:B 6.74788e-05
2 *4114:X 6.74788e-05
3 *4118:B *4114:C_N 1.91597e-05
4 *4108:A *4118:B 4.66108e-05
*RES
1 *4114:X *4118:B 3.995 
*END

*D_NET *115 0.00166254
*CONN
*I *4118:C I *D sky130_fd_sc_hd__nor4_1
*I *4115:X O *D sky130_fd_sc_hd__or4b_1
*CAP
1 *4118:C 0.000378486
2 *4115:X 0.000378486
3 *4118:C *4111:D_N 0.000487734
4 *4118:C *4114:C_N 0.000152653
5 *4118:C *134:24 0.000114475
6 *4118:C *480:32 0.000150708
*RES
1 *4115:X *4118:C 15.36 
*END

*D_NET *116 0.000656
*CONN
*I *4121:B I *D sky130_fd_sc_hd__or4_1
*I *4116:X O *D sky130_fd_sc_hd__or4bb_1
*CAP
1 *4121:B 0.000240352
2 *4116:X 0.000240352
3 *4121:B *4111:B 4.40446e-05
4 *4121:B *4114:D_N 0.000100536
5 *4121:B *4121:C 0
6 *4121:B *282:43 3.07153e-05
7 *4551:A *4121:B 0
*RES
1 *4116:X *4121:B 11.175 
*END

*D_NET *117 0.00222965
*CONN
*I *4118:D I *D sky130_fd_sc_hd__nor4_1
*I *4117:X O *D sky130_fd_sc_hd__or4bb_1
*CAP
1 *4118:D 0.000510028
2 *4117:X 0.000510028
3 *4118:D *4104:A 8.40213e-05
4 *4118:D *4104:C 5.30673e-05
5 *4118:D *4114:C_N 0.000164903
6 *4118:D *4114:D_N 4.82863e-05
7 *4118:D *4117:B 9.5433e-05
8 *4118:D *4119:D_N 0
9 *4118:D *118:10 4.9253e-06
10 *4118:D *276:39 6.07762e-05
11 *4108:A *4118:D 7.8192e-05
12 *4113:D *4118:D 4.66108e-05
13 *108:12 *4118:D 0.000573379
*RES
1 *4117:X *4118:D 18.54 
*END

*D_NET *118 0.00138538
*CONN
*I *4240:B I *D sky130_fd_sc_hd__or2_1
*I *4122:A2 I *D sky130_fd_sc_hd__a21bo_2
*I *4118:Y O *D sky130_fd_sc_hd__nor4_1
*CAP
1 *4240:B 0.000230087
2 *4122:A2 0
3 *4118:Y 0.000299627
4 *118:10 0.000529714
5 *4240:B *4122:A1 2.16833e-05
6 *4240:B *4122:B1_N 9.81827e-05
7 *4240:B *122:8 5.34747e-05
8 *4118:D *118:10 4.9253e-06
9 *108:12 *118:10 0.000147685
*RES
1 *4118:Y *118:10 6.91 
2 *118:10 *4122:A2 1.6 
3 *118:10 *4240:B 5.515 
*END

*D_NET *119 0.00100102
*CONN
*I *4121:C I *D sky130_fd_sc_hd__or4_1
*I *4119:X O *D sky130_fd_sc_hd__or4bb_1
*CAP
1 *4121:C 0.000288289
2 *4119:X 0.000288289
3 *4121:C *4104:A 0
4 *4121:C *4108:C 0.000212769
5 *4121:C *4114:D_N 0
6 *4121:C *4121:D 0.000201503
7 *4108:D *4121:C 1.01661e-05
8 *4113:C *4121:C 0
9 *4121:B *4121:C 0
*RES
1 *4119:X *4121:C 12.795 
*END

*D_NET *120 0.00181075
*CONN
*I *4121:D I *D sky130_fd_sc_hd__or4_1
*I *4120:X O *D sky130_fd_sc_hd__or4b_1
*CAP
1 *4121:D 0.000452936
2 *4120:X 0.000452936
3 *4121:D *4107:A 4.82863e-05
4 *4121:D *4107:D_N 0.000187656
5 *4121:D *4108:C 1.61831e-05
6 *4121:D *4120:C 9.36031e-05
7 *4121:D *140:100 0
8 *4121:D *283:58 5.41594e-05
9 *4121:D *283:75 4.10196e-05
10 *4121:D *284:49 6.26945e-05
11 *4121:D *285:38 8.53113e-06
12 *4108:D *4121:D 0.000191243
13 *4121:C *4121:D 0.000201503
*RES
1 *4120:X *4121:D 18.12 
*END

*D_NET *121 0.00207142
*CONN
*I *4122:B1_N I *D sky130_fd_sc_hd__a21bo_2
*I *4121:X O *D sky130_fd_sc_hd__or4_1
*CAP
1 *4122:B1_N 0.000670501
2 *4121:X 0.000670501
3 *4122:B1_N *4109:A 7.26481e-05
4 *4122:B1_N *4122:A1 7.58604e-05
5 *4122:B1_N *4248:A2 3.54025e-05
6 *4122:B1_N *4249:B1 4.82919e-05
7 *4122:B1_N *4581:A 0.000259718
8 *4122:B1_N *140:38 0
9 *4122:B1_N *140:51 0
10 *4122:B1_N *510:6 8.65961e-05
11 *4122:B1_N *510:14 1.0183e-05
12 *4121:A *4122:B1_N 4.35348e-05
13 *4240:B *4122:B1_N 9.81827e-05
*RES
1 *4121:X *4122:B1_N 18.8325 
*END

*D_NET *122 0.0104424
*CONN
*I *4232:D I *D sky130_fd_sc_hd__and4_1
*I *4231:A3 I *D sky130_fd_sc_hd__a31o_1
*I *4209:B I *D sky130_fd_sc_hd__nand2_2
*I *4208:B I *D sky130_fd_sc_hd__and2_2
*I *4123:B I *D sky130_fd_sc_hd__nand2_1
*I *4143:A3 I *D sky130_fd_sc_hd__a31o_1
*I *4124:B1 I *D sky130_fd_sc_hd__a221o_1
*I *4144:B I *D sky130_fd_sc_hd__nor2_4
*I *4122:X O *D sky130_fd_sc_hd__a21bo_2
*CAP
1 *4232:D 4.03266e-05
2 *4231:A3 0.000690164
3 *4209:B 1.88809e-05
4 *4208:B 0.000166283
5 *4123:B 2.08101e-05
6 *4143:A3 0.000200971
7 *4124:B1 0
8 *4144:B 0.000225507
9 *4122:X 0.000282972
10 *122:80 0.00102261
11 *122:67 0.000461801
12 *122:54 0.000505706
13 *122:45 0.000479711
14 *122:32 0.000909119
15 *122:12 0.000347187
16 *122:8 0.000842519
17 *4143:A3 *4243:A 1.94892e-05
18 *4143:A3 *263:10 0
19 *4143:A3 *263:63 0
20 *4143:A3 *263:65 0
21 *4143:A3 *356:12 1.71013e-05
22 *4143:A3 *356:65 5.7344e-05
23 *4143:A3 *356:78 9.07769e-05
24 *4144:B *4124:B2 2.49708e-05
25 *4144:B *140:8 2.75145e-05
26 *4208:B *4227:C 0
27 *4208:B *4559:A 3.09164e-05
28 *4208:B *178:10 0
29 *4208:B *180:46 0
30 *4208:B *488:12 0
31 *4208:B *488:47 0
32 *4209:B *488:121 5.4155e-06
33 *4231:A3 *4230:A 0.000198945
34 *4231:A3 *4230:C 2.09509e-05
35 *4231:A3 *4233:B 2.8585e-06
36 *4231:A3 *4233:C 6.54766e-05
37 *4231:A3 *4374:CLK 1.12319e-05
38 *4231:A3 *488:47 1.83756e-05
39 *4231:A3 *488:56 3.26889e-05
40 *4232:D *4140:C 0
41 *4232:D *4232:C 6.38291e-05
42 *122:8 *4240:A 2.97473e-05
43 *122:8 *4241:A1 2.49909e-05
44 *122:8 *4241:A2 1.34503e-05
45 *122:8 *4241:B1 0.000124007
46 *122:12 *4124:B2 0.000292066
47 *122:12 *4378:D 6.65066e-05
48 *122:12 *450:21 0
49 *122:32 *4124:B2 0.000193571
50 *122:32 *134:14 6.86906e-05
51 *122:32 *151:16 0
52 *122:32 *259:164 0.0001249
53 *122:32 *263:8 8.65961e-05
54 *122:32 *263:10 2.7881e-05
55 *122:32 *263:12 8.97486e-05
56 *122:32 *263:14 0.000111324
57 *122:32 *263:18 9.1566e-05
58 *122:32 *356:12 0
59 *122:32 *450:21 0
60 *122:45 *4123:A 4.66108e-05
61 *122:45 *4192:A 9.56308e-05
62 *122:45 *259:164 0.000261321
63 *122:45 *356:8 0.0001249
64 *122:54 *4192:A 7.03516e-05
65 *122:54 *488:8 9.4087e-05
66 *122:67 *488:8 0.000136838
67 *122:67 *488:121 5.30673e-05
68 *122:80 *4192:A 9.80032e-06
69 *122:80 *4213:B 0.000120655
70 *122:80 *4232:C 0.000650474
71 *122:80 *4463:A 0
72 *122:80 *178:69 5.83121e-06
73 *122:80 *266:79 0.000261882
74 *122:80 *488:121 3.90495e-05
75 *4144:A *4144:B 4.99619e-05
76 *4240:B *122:8 5.34747e-05
77 *4374:D *4231:A3 9.02583e-05
78 *100:338 *4144:B 3.07153e-05
*RES
1 *4122:X *122:8 8.19 
2 *122:8 *122:12 5.42 
3 *122:12 *4144:B 5.17 
4 *122:12 *4124:B1 1.6 
5 *122:8 *122:32 12.17 
6 *122:32 *4143:A3 9.275 
7 *122:32 *122:45 5.28 
8 *122:45 *4123:B 1.96 
9 *122:45 *122:54 3.21 
10 *122:54 *4208:B 8.255 
11 *122:54 *122:67 2.865 
12 *122:67 *4209:B 1.96 
13 *122:67 *122:80 9.995 
14 *122:80 *4231:A3 12.255 
15 *122:80 *4232:D 4.47 
*END

*D_NET *123 0.00135522
*CONN
*I *4136:C I *D sky130_fd_sc_hd__or4_4
*I *4123:Y O *D sky130_fd_sc_hd__nand2_1
*CAP
1 *4136:C 0.000319731
2 *4123:Y 0.000319731
3 *4136:C *526:DIODE 4.82919e-05
4 *4136:C *4134:B 0.000100604
5 *4136:C *4136:A 0.000176324
6 *4136:C *4227:C 0
7 *4136:C *134:64 4.11393e-05
8 *4136:C *180:19 0
9 *4227:A *4136:C 0.000187071
10 *97:12 *4136:C 0.000162325
*RES
1 *4123:Y *4136:C 14.1675 
*END

*D_NET *124 0.000437973
*CONN
*I *4507:A I *D sky130_fd_sc_hd__dlygate4sd3_1
*I *4125:X O *D sky130_fd_sc_hd__or4b_1
*CAP
1 *4507:A 9.55598e-05
2 *4125:X 9.55598e-05
3 *4507:A *4125:B 0
4 *4507:A *4337:B1 4.66742e-05
5 *4507:A *225:10 0
6 *4507:A *265:12 0.000116158
7 *4507:A *367:14 8.40213e-05
*RES
1 *4125:X *4507:A 9.375 
*END

*D_NET *125 0.000188163
*CONN
*I *4132:B1 I *D sky130_fd_sc_hd__a31o_1
*I *4126:X O *D sky130_fd_sc_hd__and3_1
*CAP
1 *4132:B1 5.95258e-05
2 *4126:X 5.95258e-05
3 *4132:B1 *4132:A1 5.05437e-05
4 *4132:B1 *4132:A2 1.85674e-05
5 *4132:B1 *4146:C 0
*RES
1 *4126:X *4132:B1 4.355 
*END

*D_NET *126 0.000197095
*CONN
*I *4131:A I *D sky130_fd_sc_hd__nor4_4
*I *4127:X O *D sky130_fd_sc_hd__or4b_1
*CAP
1 *4131:A 8.04492e-05
2 *4127:X 8.04492e-05
3 *4131:A *4305:B 0
4 *4131:A *144:24 9.50342e-06
5 *4131:A *238:14 2.66935e-05
*RES
1 *4127:X *4131:A 8.58 
*END

*D_NET *127 0.00141825
*CONN
*I *4131:B I *D sky130_fd_sc_hd__nor4_4
*I *4128:Y O *D sky130_fd_sc_hd__nand2_1
*CAP
1 *4131:B 0.000372569
2 *4128:Y 0.000372569
3 *4131:B *4131:C 0.000633124
4 *4131:B *130:10 3.99879e-05
*RES
1 *4128:Y *4131:B 10.475 
*END

*D_NET *128 0.00210183
*CONN
*I *4131:C I *D sky130_fd_sc_hd__nor4_4
*I *4129:X O *D sky130_fd_sc_hd__or4_1
*CAP
1 *4131:C 0.000444062
2 *4129:X 0.000444062
3 *4131:C *4128:A 0.00023468
4 *4131:C *4128:B 0.000111293
5 *4131:C *4129:A 0.000201503
6 *4131:C *130:10 3.31103e-05
7 *4131:B *4131:C 0.000633124
*RES
1 *4129:X *4131:C 14.375 
*END

*D_NET *129 0.000906401
*CONN
*I *4131:D I *D sky130_fd_sc_hd__nor4_4
*I *4130:X O *D sky130_fd_sc_hd__or4bb_1
*CAP
1 *4131:D 0.000294518
2 *4130:X 0.000294518
3 *4131:D *4335:B1 8.65961e-05
4 *4131:D *4491:A 0.00018471
5 *4131:D *350:14 4.60584e-05
*RES
1 *4130:X *4131:D 12.36 
*END

*D_NET *130 0.00918564
*CONN
*I *4132:A3 I *D sky130_fd_sc_hd__a31o_1
*I *4289:B I *D sky130_fd_sc_hd__and3_1
*I *4288:A1 I *D sky130_fd_sc_hd__a21o_1
*I *4169:B I *D sky130_fd_sc_hd__nand2_2
*I *4191:A2 I *D sky130_fd_sc_hd__a31o_1
*I *4150:B I *D sky130_fd_sc_hd__nor2_4
*I *4131:Y O *D sky130_fd_sc_hd__nor4_4
*CAP
1 *4132:A3 0.000199219
2 *4289:B 0
3 *4288:A1 0
4 *4169:B 0.000144631
5 *4191:A2 3.52443e-05
6 *4150:B 0
7 *4131:Y 0.000577126
8 *130:68 0.000572449
9 *130:55 0.00104383
10 *130:29 0.000654263
11 *130:16 0.000752696
12 *130:10 0.00152603
13 *4132:A3 *4132:A1 4.82863e-05
14 *4132:A3 *4132:A2 2.11084e-05
15 *4132:A3 *4285:A2 4.5783e-05
16 *4132:A3 *4289:A 5.10957e-05
17 *4132:A3 *4300:B 0
18 *4132:A3 *228:8 5.53249e-06
19 *4132:A3 *367:14 4.13092e-05
20 *4169:B *4188:A1 6.97202e-05
21 *4169:B *4188:B2 0.000100536
22 *4169:B *4189:B1 8.49205e-05
23 *4169:B *133:55 0.000185405
24 *4191:A2 *4189:B1 0.000122325
25 *4191:A2 *4191:B1 2.05056e-05
26 *4191:A2 *360:20 4.99619e-05
27 *130:10 *238:14 0.000198945
28 *130:16 *144:10 0.000296942
29 *130:16 *144:18 0.000216156
30 *130:16 *264:10 0.000285202
31 *130:16 *264:12 0.000201335
32 *130:16 *264:14 3.09233e-05
33 *130:16 *264:82 9.06521e-05
34 *130:16 *264:102 0.000153787
35 *130:16 *264:117 0.000175894
36 *130:29 *549:DIODE 0.00011577
37 *130:29 *4149:A 2.4997e-05
38 *130:29 *4169:A 3.09164e-05
39 *130:29 *335:18 7.63204e-05
40 *130:29 *360:10 0.00014368
41 *130:29 *360:20 0
42 *130:55 *4511:A 6.60261e-06
43 *130:68 *4125:C 1.91597e-05
44 *130:68 *4288:B1 9.21168e-05
45 *130:68 *4289:A 6.55406e-05
46 *130:68 *228:8 8.97642e-05
47 *4131:B *130:10 3.99879e-05
48 *4131:C *130:10 3.31103e-05
49 *4404:D *130:55 8.58415e-05
50 *4499:A *130:68 0.000345665
51 *100:90 *130:16 4.18603e-06
52 *100:106 *130:16 1.01661e-05
53 *100:127 *4132:A3 0
*RES
1 *4131:Y *130:10 9.76 
2 *130:10 *130:16 14.815 
3 *130:16 *4150:B 1.6 
4 *130:16 *130:29 12.805 
5 *130:29 *4191:A2 2.74 
6 *130:29 *4169:B 9.575 
7 *130:10 *130:55 7.815 
8 *130:55 *4288:A1 1.6 
9 *130:55 *130:68 9.53 
10 *130:68 *4289:B 3.6 
11 *130:68 *4132:A3 7.5 
*END

*D_NET *131 0.00257796
*CONN
*I *4134:C I *D sky130_fd_sc_hd__or3_1
*I *4136:D I *D sky130_fd_sc_hd__or4_4
*I *4145:A2 I *D sky130_fd_sc_hd__a22o_1
*I *4133:X O *D sky130_fd_sc_hd__and2b_1
*CAP
1 *4134:C 0
2 *4136:D 0
3 *4145:A2 0.000134076
4 *4133:X 0.000275129
5 *131:14 0.000146136
6 *131:12 0.00028719
7 *4145:A2 *4136:A 0.00016063
8 *4145:A2 *4145:A1 4.66108e-05
9 *4145:A2 *4380:CLK 0.000158066
10 *4145:A2 *356:18 0.000149621
11 *4145:A2 *356:49 2.0514e-05
12 *4145:A2 *373:257 0.000556606
13 *131:12 *4135:B1 0
14 *131:12 *4240:A 0.000203178
15 *131:12 *259:160 0.000308055
16 *131:12 *460:12 4.53623e-05
17 *131:12 *488:20 4.43871e-06
18 *131:14 *4136:A 3.57349e-05
19 *131:14 *373:257 4.66108e-05
20 *97:12 *131:12 0
21 *97:22 *131:12 0
*RES
1 *4133:X *131:12 11.105 
2 *131:12 *131:14 0.45 
3 *131:14 *4145:A2 7.225 
4 *131:14 *4136:D 1.6 
5 *131:12 *4134:C 1.6 
*END

*D_NET *132 0.000294595
*CONN
*I *4135:B1 I *D sky130_fd_sc_hd__a211oi_4
*I *4134:X O *D sky130_fd_sc_hd__or3_1
*CAP
1 *4135:B1 5.13677e-05
2 *4134:X 5.13677e-05
3 *4135:B1 *460:12 7.4027e-05
4 *97:12 *4135:B1 0.000117832
5 *131:12 *4135:B1 0
*RES
1 *4134:X *4135:B1 6.98 
*END

*D_NET *133 0.0223432
*CONN
*I *4157:B I *D sky130_fd_sc_hd__or2_1
*I *4154:A2 I *D sky130_fd_sc_hd__o21ba_1
*I *4153:A2 I *D sky130_fd_sc_hd__a21o_1
*I *4161:A2 I *D sky130_fd_sc_hd__a21o_1
*I *4159:B I *D sky130_fd_sc_hd__or2_1
*I *4155:B I *D sky130_fd_sc_hd__or2_1
*I *4163:A2 I *D sky130_fd_sc_hd__a21o_1
*I *4188:A2 I *D sky130_fd_sc_hd__a22o_1
*I *4148:B I *D sky130_fd_sc_hd__and2_2
*I *4149:B I *D sky130_fd_sc_hd__nand2_2
*I *4165:A2 I *D sky130_fd_sc_hd__a21o_1
*I *4167:A2 I *D sky130_fd_sc_hd__a21o_1
*I *4135:Y O *D sky130_fd_sc_hd__a211oi_4
*CAP
1 *4157:B 6.01926e-05
2 *4154:A2 2.08101e-05
3 *4153:A2 0.000423032
4 *4161:A2 0
5 *4159:B 0
6 *4155:B 0.000302391
7 *4163:A2 0
8 *4188:A2 0
9 *4148:B 0.000178477
10 *4149:B 1.85694e-05
11 *4165:A2 0
12 *4167:A2 0.000249412
13 *4135:Y 0.000473771
14 *133:166 0.00027607
15 *133:147 0.000989569
16 *133:134 0.000399441
17 *133:114 0.000903141
18 *133:108 0.00107479
19 *133:93 0.0013564
20 *133:55 0.000263224
21 *133:51 0.00104032
22 *133:42 0.00148783
23 *133:23 0.00144899
24 *133:10 0.000748151
25 *4148:B *4148:A 4.82919e-05
26 *4148:B *4149:A 1.71013e-05
27 *4148:B *4188:B2 4.18603e-06
28 *4148:B *4583:A 0
29 *4148:B *4584:A 0
30 *4148:B *335:18 0.000340988
31 *4148:B *360:10 0.000278117
32 *4148:B *360:62 0.000119019
33 *4149:B *4149:A 9.53428e-06
34 *4153:A2 *4154:B1_N 0.00026617
35 *4153:A2 *4158:A1 0.00016354
36 *4153:A2 *4158:B1 4.82863e-05
37 *4153:A2 *4561:A 0.000219294
38 *4153:A2 *4562:A 6.35307e-05
39 *4153:A2 *134:83 5.09024e-05
40 *4153:A2 *267:101 4.18494e-05
41 *4153:A2 *301:27 4.77719e-05
42 *4154:A2 *4564:A 0
43 *4155:B *4155:A 4.66108e-05
44 *4155:B *4156:C1 3.17967e-05
45 *4155:B *4159:A 0.00021703
46 *4155:B *4160:C1 0.000103974
47 *4155:B *4339:D 4.43871e-06
48 *4155:B *4567:A 0.000125317
49 *4155:B *4584:A 0.000148669
50 *4155:B *4612:A 0.000334389
51 *4155:B *265:130 4.21973e-05
52 *4157:B *4564:A 6.90876e-05
53 *4167:A2 *4100:A 0
54 *4167:A2 *4206:B 8.26696e-05
55 *4167:A2 *4521:A 0
56 *4167:A2 *151:16 0
57 *133:10 *4206:B 0.000133956
58 *133:10 *4226:A2 2.97561e-05
59 *133:10 *4394:D 0
60 *133:10 *151:16 0
61 *133:10 *180:10 7.46706e-05
62 *133:10 *180:19 2.25075e-05
63 *133:10 *460:109 8.73389e-06
64 *133:23 *4165:A1 3.00381e-05
65 *133:42 *4165:A1 9.4262e-05
66 *133:42 *4187:A1 0
67 *133:42 *4189:A2 2.92496e-05
68 *133:42 *4190:C 4.66108e-05
69 *133:42 *4191:A3 0.000126049
70 *133:42 *4284:B1 0
71 *133:42 *4357:D 0.00012672
72 *133:42 *4364:D 6.50844e-06
73 *133:42 *4365:CLK 0.000154964
74 *133:42 *143:74 2.75229e-05
75 *133:42 *143:88 0.000188069
76 *133:42 *168:6 1.55536e-05
77 *133:42 *264:117 4.82919e-05
78 *133:42 *264:119 4.82863e-05
79 *133:42 *266:33 0.000132081
80 *133:42 *266:46 2.36616e-05
81 *133:42 *308:10 0.000163199
82 *133:42 *333:8 8.57024e-05
83 *133:42 *373:66 5.2089e-05
84 *133:42 *373:132 3.6885e-05
85 *133:42 *373:145 3.05295e-05
86 *133:51 *4149:A 2.16833e-05
87 *133:51 *4169:A 0.000163204
88 *133:51 *143:14 1.96048e-05
89 *133:51 *333:8 0.000278111
90 *133:55 *4149:A 9.23473e-05
91 *133:55 *4188:B2 1.7379e-05
92 *133:55 *143:74 0
93 *133:93 *4171:B 9.37731e-05
94 *133:93 *4172:A1 2.0514e-05
95 *133:93 *4172:C1 6.07575e-06
96 *133:93 *4173:A0 0
97 *133:93 *4176:A1 0.000115464
98 *133:93 *143:14 0.000252809
99 *133:93 *153:8 5.58206e-05
100 *133:93 *259:64 0.000213935
101 *133:93 *333:8 0.000123225
102 *133:93 *346:10 0
103 *133:93 *373:48 0.000347895
104 *133:93 *499:12 0.000116165
105 *133:108 *4178:B1 4.57185e-05
106 *133:108 *4353:D 8.49205e-05
107 *133:108 *259:64 8.44217e-05
108 *133:108 *499:12 0.000263142
109 *133:114 *4175:B1 3.00381e-05
110 *133:114 *4353:D 8.52172e-05
111 *133:114 *4600:A 9.50342e-06
112 *133:114 *4601:A 0.000154106
113 *133:114 *495:12 0
114 *133:134 *4577:A 5.53249e-06
115 *133:134 *495:12 0
116 *133:147 *4161:A1 0.000355875
117 *133:147 *4345:CLK 0.000199734
118 *133:147 *4530:A 6.10941e-05
119 *133:147 *4577:A 0
120 *133:147 *4613:A 8.70923e-05
121 *133:147 *4615:A 0
122 *133:147 *467:8 2.15594e-05
123 *133:166 *4154:B1_N 0.000338722
124 *133:166 *4564:A 6.90876e-05
125 *537:DIODE *4153:A2 4.30228e-05
126 *4153:A1 *4153:A2 0.00011971
127 *4153:B1 *4153:A2 3.50152e-06
128 *4163:B1 *133:108 0.000188371
129 *4165:B1 *133:23 8.65961e-05
130 *4165:B1 *133:42 0.000105764
131 *4169:B *133:55 0.000185405
132 *4211:B *133:10 2.23485e-05
133 *4365:D *133:42 7.1241e-05
134 *4569:A *133:114 0.000270409
135 *4580:A *133:42 3.86529e-05
136 *4585:A *133:166 8.57024e-05
137 *3:19 *133:10 1.79536e-05
138 *97:12 *133:10 4.40355e-05
139 *97:22 *133:10 0.000441839
140 *100:206 *133:114 0.000158574
141 *100:215 *133:114 3.5425e-05
142 *100:215 *133:134 1.38321e-05
143 *100:215 *133:147 9.50342e-06
144 *100:245 *133:147 0.000152821
145 *100:295 *133:42 1.34503e-05
146 *100:328 *133:10 2.59981e-05
*RES
1 *4135:Y *133:10 14.1825 
2 *133:10 *4167:A2 7.785 
3 *133:10 *133:23 2.795 
4 *133:23 *4165:A2 1.6 
5 *133:23 *133:42 27.67 
6 *133:42 *4149:B 1.96 
7 *133:42 *133:51 2.52 
8 *133:51 *133:55 4.655 
9 *133:55 *4148:B 9.15 
10 *133:55 *4188:A2 3.6 
11 *133:51 *133:93 18.11 
12 *133:93 *4163:A2 3.6 
13 *133:93 *133:108 12.895 
14 *133:108 *133:114 13.94 
15 *133:114 *4155:B 15.26 
16 *133:114 *4159:B 1.6 
17 *133:108 *133:134 0.615 
18 *133:134 *4161:A2 3.6 
19 *133:134 *133:147 11.315 
20 *133:147 *4153:A2 14.96 
21 *133:147 *133:166 4.245 
22 *133:166 *4154:A2 1.96 
23 *133:166 *4157:B 2.74 
*END

*D_NET *134 0.0307617
*CONN
*I *539:DIODE I *D sky130_fd_sc_hd__diode_2
*I *4158:A2 I *D sky130_fd_sc_hd__o211a_1
*I *544:DIODE I *D sky130_fd_sc_hd__diode_2
*I *4164:A2 I *D sky130_fd_sc_hd__a21o_1
*I *4162:A2 I *D sky130_fd_sc_hd__a21o_1
*I *4160:A2 I *D sky130_fd_sc_hd__o211a_1
*I *542:DIODE I *D sky130_fd_sc_hd__diode_2
*I *540:DIODE I *D sky130_fd_sc_hd__diode_2
*I *4156:A2 I *D sky130_fd_sc_hd__o211a_1
*I *538:DIODE I *D sky130_fd_sc_hd__diode_2
*I *4139:A2 I *D sky130_fd_sc_hd__a221o_1
*I *527:DIODE I *D sky130_fd_sc_hd__diode_2
*I *526:DIODE I *D sky130_fd_sc_hd__diode_2
*I *4166:A2 I *D sky130_fd_sc_hd__a21o_1
*I *546:DIODE I *D sky130_fd_sc_hd__diode_2
*I *548:DIODE I *D sky130_fd_sc_hd__diode_2
*I *4168:A2 I *D sky130_fd_sc_hd__a21o_1
*I *4136:X O *D sky130_fd_sc_hd__or4_4
*CAP
1 *539:DIODE 0.000218999
2 *4158:A2 0
3 *544:DIODE 0
4 *4164:A2 0
5 *4162:A2 0
6 *4160:A2 1.51126e-05
7 *542:DIODE 0
8 *540:DIODE 0
9 *4156:A2 0.000245558
10 *538:DIODE 0.000210687
11 *4139:A2 6.9281e-06
12 *527:DIODE 0.000116155
13 *526:DIODE 6.29071e-05
14 *4166:A2 6.04852e-05
15 *546:DIODE 8.49259e-05
16 *548:DIODE 0
17 *4168:A2 6.54492e-05
18 *4136:X 0
19 *134:207 0.00030163
20 *134:127 0.00025527
21 *134:125 0.000535902
22 *134:119 0.000574354
23 *134:115 0.000356212
24 *134:111 0.000395972
25 *134:107 0.000615523
26 *134:97 0.00060705
27 *134:95 0.000268167
28 *134:93 0.000799117
29 *134:83 0.00395821
30 *134:64 0.00371625
31 *134:40 0.000697587
32 *134:24 0.00141985
33 *134:14 0.0029488
34 *134:4 0.0015331
35 *527:DIODE *4125:A 4.75576e-05
36 *527:DIODE *4137:B 1.61831e-05
37 *527:DIODE *4139:A1 9.50342e-06
38 *527:DIODE *4294:B 0.000124895
39 *527:DIODE *4297:B 0
40 *527:DIODE *372:6 8.8266e-05
41 *538:DIODE *4285:C1 1.49562e-05
42 *538:DIODE *4337:B2 4.43682e-05
43 *538:DIODE *4418:D 4.82863e-05
44 *539:DIODE *4345:CLK 5.53249e-06
45 *539:DIODE *495:12 5.12859e-05
46 *546:DIODE *151:16 7.35813e-05
47 *4156:A2 *4156:A1 4.29107e-05
48 *4156:A2 *4156:B1 2.28636e-05
49 *4160:A2 *4160:B1 9.03508e-06
50 *4166:A2 *4166:A1 2.75229e-05
51 *4166:A2 *151:16 4.82919e-05
52 *4166:A2 *511:10 2.7881e-05
53 *4168:A2 *4168:B1 8.8266e-05
54 *134:14 *151:16 0
55 *134:14 *356:12 5.02217e-05
56 *134:24 *4103:A 6.46116e-05
57 *134:24 *4111:D_N 9.24127e-05
58 *134:24 *4114:C_N 0
59 *134:24 *4116:C_N 0
60 *134:24 *4168:B1 0.000291297
61 *134:24 *4255:A 0
62 *134:24 *4383:CLK 0.000177723
63 *134:24 *200:23 0.00032511
64 *134:24 *200:25 0.000423818
65 *134:24 *200:27 0.000148854
66 *134:24 *200:29 0.000197599
67 *134:24 *200:37 0.000534144
68 *134:24 *205:8 0
69 *134:24 *260:75 5.20968e-05
70 *134:24 *281:23 0
71 *134:24 *385:12 0
72 *134:24 *480:32 0
73 *134:40 *4103:A 6.28498e-05
74 *134:40 *4244:C 7.26629e-05
75 *134:40 *140:66 5.2089e-05
76 *134:40 *140:181 0.000120321
77 *134:40 *200:23 5.72829e-05
78 *134:40 *273:10 0
79 *134:40 *273:12 0
80 *134:40 *276:23 0.000386471
81 *134:40 *276:33 0
82 *134:64 *4136:A 1.61831e-05
83 *134:64 *373:257 0.000345353
84 *134:83 *4157:A 4.82863e-05
85 *134:83 *4224:A2 4.66742e-05
86 *134:83 *4361:CLK 9.27495e-05
87 *134:83 *4369:D 6.50844e-06
88 *134:83 *4371:CLK 1.83756e-05
89 *134:83 *4426:A 2.11084e-05
90 *134:83 *4561:A 4.86257e-05
91 *134:83 *4562:A 0.000124888
92 *134:83 *180:38 0.000204034
93 *134:83 *266:8 0.00015184
94 *134:83 *301:27 0.000100377
95 *134:83 *455:6 4.7101e-05
96 *134:93 *4158:C1 3.86529e-05
97 *134:93 *4345:CLK 8.73216e-05
98 *134:93 *4613:A 0.000276983
99 *134:95 *4348:D 0
100 *134:97 *4162:A1 0.000269665
101 *134:97 *4164:B1 3.12193e-05
102 *134:107 *4160:A1 0
103 *134:107 *4164:B1 5.35988e-05
104 *134:107 *4567:A 0
105 *134:107 *373:12 0.000218658
106 *134:111 *373:12 4.82919e-05
107 *134:115 *4352:CLK 0.000204456
108 *134:115 *4436:A 0.000698149
109 *134:115 *265:93 0.000209873
110 *134:119 *4155:A 0.000116853
111 *134:119 *4436:A 0.000355896
112 *134:119 *4451:A 1.0183e-05
113 *134:119 *265:93 9.30787e-05
114 *134:119 *335:55 0
115 *134:125 *4139:A1 5.16418e-05
116 *134:125 *4139:B1 7.1301e-06
117 *134:125 *4418:D 0.000162332
118 *134:125 *4451:A 8.23457e-05
119 *134:125 *335:55 0.000129735
120 *134:127 *4139:A1 0.000315827
121 *134:127 *4139:B1 5.99925e-05
122 *134:207 *4158:B1 0.00011852
123 *134:207 *4158:C1 5.29131e-05
124 *134:207 *4345:CLK 0.000119431
125 led[3] *134:111 7.74785e-05
126 led[4] *134:93 0.000113174
127 led[4] *134:95 1.88656e-05
128 *528:DIODE *4139:A2 1.2818e-05
129 *574:DIODE *134:127 0
130 *4113:A *134:24 0
131 *4118:C *134:24 0.000114475
132 *4135:A2 *134:14 0.000801294
133 *4136:C *526:DIODE 4.82919e-05
134 *4136:C *134:64 4.11393e-05
135 *4153:A2 *134:83 5.09024e-05
136 *4361:D *134:83 3.80465e-05
137 *4371:D *134:83 2.63256e-05
138 *4379:D *134:40 0
139 *4452:A *134:127 0
140 *4565:A *539:DIODE 5.83121e-06
141 *4586:A *4156:A2 6.71882e-05
142 *4586:A *134:125 6.52265e-05
143 *100:206 *134:115 0.000156113
144 *103:10 *134:24 0
145 *103:12 *134:24 0
146 *122:32 *134:14 6.86906e-05
*RES
1 *4136:X *134:4 1.6 
2 *134:4 *134:14 20.67 
3 *134:14 *134:24 31.415 
4 *134:24 *4168:A2 3.01 
5 *134:24 *548:DIODE 1.6 
6 *134:14 *134:40 13.11 
7 *134:40 *546:DIODE 4.74 
8 *134:40 *4166:A2 4.92 
9 *134:4 *134:64 6.66 
10 *134:64 *526:DIODE 2.395 
11 *134:64 *134:83 41.33 
12 *134:83 *134:93 13.945 
13 *134:93 *134:95 1.38 
14 *134:95 *134:97 4.185 
15 *134:97 *134:107 9.86 
16 *134:107 *134:111 3.135 
17 *134:111 *134:115 10.265 
18 *134:115 *134:119 6.185 
19 *134:119 *134:125 5.975 
20 *134:125 *134:127 3.675 
21 *134:127 *527:DIODE 6.375 
22 *134:127 *4139:A2 3.72375 
23 *134:125 *538:DIODE 6.12 
24 *134:119 *4156:A2 4.99 
25 *134:115 *540:DIODE 3.6 
26 *134:111 *542:DIODE 1.6 
27 *134:107 *4160:A2 1.96 
28 *134:97 *4162:A2 3.6 
29 *134:95 *4164:A2 3.6 
30 *134:93 *544:DIODE 3.6 
31 *134:83 *134:207 2.655 
32 *134:207 *4158:A2 3.6 
33 *134:207 *539:DIODE 6.72 
*END

*D_NET *135 0.00135297
*CONN
*I *4138:A I *D sky130_fd_sc_hd__inv_2
*I *4457:A I *D sky130_fd_sc_hd__dlygate4sd3_1
*I *4137:X O *D sky130_fd_sc_hd__or4b_1
*CAP
1 *4138:A 0.000181116
2 *4457:A 0
3 *4137:X 0.000136361
4 *135:8 0.000317477
5 *4138:A *4139:B1 7.24779e-05
6 *4138:A *4337:B2 0.000187071
7 *4138:A *225:10 0
8 *4138:A *362:47 0
9 *135:8 *4139:B1 1.65192e-05
10 *135:8 *4139:B2 5.92269e-05
11 *135:8 *4297:B 0.000159957
12 *135:8 *4298:B 0.000112279
13 *135:8 *225:10 0
14 *135:8 *372:21 0.000110486
*RES
1 *4137:X *135:8 7.275 
2 *135:8 *4457:A 3.6 
3 *135:8 *4138:A 7.785 
*END

*D_NET *136 0.00126073
*CONN
*I *4139:B1 I *D sky130_fd_sc_hd__a221o_1
*I *4138:Y O *D sky130_fd_sc_hd__inv_2
*CAP
1 *4139:B1 0.000210271
2 *4138:Y 0.000210271
3 *4139:B1 *4139:A1 0.000210151
4 *4139:B1 *4139:B2 0.000163019
5 *4139:B1 *4337:B2 6.36578e-05
6 *4139:B1 *4418:D 0.000162318
7 *4139:B1 *4451:A 8.49205e-05
8 *4138:A *4139:B1 7.24779e-05
9 *134:125 *4139:B1 7.1301e-06
10 *134:127 *4139:B1 5.99925e-05
11 *135:8 *4139:B1 1.65192e-05
*RES
1 *4138:Y *4139:B1 13.71 
*END

*D_NET *137 0.000128449
*CONN
*I *4450:A I *D sky130_fd_sc_hd__dlygate4sd3_1
*I *4140:X O *D sky130_fd_sc_hd__or4b_1
*CAP
1 *4450:A 2.86893e-05
2 *4140:X 2.86893e-05
3 *4450:A *4231:B1 4.99619e-05
4 *4450:A *4559:A 2.11084e-05
*RES
1 *4140:X *4450:A 4.01 
*END

*D_NET *138 0.000774993
*CONN
*I *4152:A3 I *D sky130_fd_sc_hd__a32o_1
*I *4141:Y O *D sky130_fd_sc_hd__inv_2
*CAP
1 *4152:A3 0.000151151
2 *4141:Y 0.000151151
3 *4152:A3 *4152:A2 0.00010626
4 *4152:A3 *4152:B1 2.91343e-05
5 *4152:A3 *4379:CLK 0.000304186
6 *4152:A3 *373:276 3.31103e-05
*RES
1 *4141:Y *4152:A3 8.15 
*END

*D_NET *139 0.000327685
*CONN
*I *4143:B1 I *D sky130_fd_sc_hd__a31o_1
*I *4142:X O *D sky130_fd_sc_hd__and3_1
*CAP
1 *4143:B1 4.36036e-05
2 *4142:X 4.36036e-05
3 *4143:B1 *4099:A 9.78603e-05
4 *4143:B1 *4141:A 6.03947e-06
5 *4143:B1 *151:16 1.7396e-05
6 *4143:B1 *263:65 0
7 *4143:B1 *356:78 3.09164e-05
8 *4143:B1 *373:274 8.8266e-05
*RES
1 *4142:X *4143:B1 8.71875 
*END

*D_NET *140 0.0202767
*CONN
*I *4152:B1 I *D sky130_fd_sc_hd__a32o_1
*I *4244:C I *D sky130_fd_sc_hd__and3b_1
*I *4246:B1 I *D sky130_fd_sc_hd__o21ai_1
*I *4277:B1 I *D sky130_fd_sc_hd__o21ai_1
*I *4275:B1 I *D sky130_fd_sc_hd__o21ai_1
*I *4266:B1 I *D sky130_fd_sc_hd__o21ai_1
*I *4269:B1 I *D sky130_fd_sc_hd__o21ai_1
*I *4263:B1 I *D sky130_fd_sc_hd__o21ai_1
*I *4257:B1 I *D sky130_fd_sc_hd__o21ai_1
*I *4260:B1 I *D sky130_fd_sc_hd__o21ai_1
*I *4272:B1 I *D sky130_fd_sc_hd__o21ai_1
*I *4281:A I *D sky130_fd_sc_hd__and3_1
*I *4145:B1 I *D sky130_fd_sc_hd__a22o_1
*I *4248:B1 I *D sky130_fd_sc_hd__o21ai_1
*I *4254:B1 I *D sky130_fd_sc_hd__o21ai_1
*I *4252:B I *D sky130_fd_sc_hd__and3b_1
*I *4144:Y O *D sky130_fd_sc_hd__nor2_4
*CAP
1 *4152:B1 0.000352725
2 *4244:C 0.000203935
3 *4246:B1 2.42846e-05
4 *4277:B1 0
5 *4275:B1 0.000529643
6 *4266:B1 0
7 *4269:B1 0.000207569
8 *4263:B1 0.000183432
9 *4257:B1 9.5848e-05
10 *4260:B1 0
11 *4272:B1 0.000137271
12 *4281:A 0
13 *4145:B1 0
14 *4248:B1 0.000315076
15 *4254:B1 0
16 *4252:B 0.000306176
17 *4144:Y 4.71875e-05
18 *140:181 0.000305156
19 *140:132 0.000699119
20 *140:124 0.000338253
21 *140:108 0.000481945
22 *140:100 0.000747247
23 *140:89 0.00059164
24 *140:83 0.000652998
25 *140:81 0.000204713
26 *140:72 0.000909262
27 *140:66 0.00139608
28 *140:53 0.000614594
29 *140:51 0.000667752
30 *140:38 0.00079187
31 *140:18 0.000988825
32 *140:8 0.000891603
33 *4152:B1 *4152:A1 9.7872e-05
34 *4152:B1 *4152:A2 1.0284e-05
35 *4152:B1 *4152:B2 0.000116158
36 *4152:B1 *4192:A 1.17036e-05
37 *4152:B1 *4245:A2 0.000198188
38 *4152:B1 *290:8 0.00014173
39 *4152:B1 *290:29 7.63652e-05
40 *4152:B1 *356:27 0
41 *4152:B1 *373:244 2.92496e-05
42 *4152:B1 *488:85 2.86623e-05
43 *4244:C *4244:A_N 1.47256e-05
44 *4244:C *4516:A 6.97118e-05
45 *4244:C *273:12 7.44453e-05
46 *4246:B1 *259:173 2.75229e-05
47 *4248:B1 *4248:A2 8.8266e-05
48 *4248:B1 *4581:A 0.000424699
49 *4252:B *4252:A_N 0.000199627
50 *4252:B *204:10 2.78732e-05
51 *4252:B *259:116 0.000317507
52 *4263:B1 *4264:B 0.000135531
53 *4263:B1 *4265:D 0.000127932
54 *4263:B1 *4267:A 0
55 *4263:B1 *4267:B 5.94465e-05
56 *4263:B1 *4495:A 4.9253e-06
57 *4263:B1 *207:36 7.89767e-05
58 *4269:B1 *4120:D_N 0
59 *4269:B1 *4265:D 6.55406e-05
60 *4269:B1 *4267:A 0
61 *4269:B1 *4268:B 0.000164874
62 *4269:B1 *4269:A1 2.05056e-05
63 *4269:B1 *285:10 6.55328e-05
64 *4269:B1 *285:23 7.63125e-05
65 *4269:B1 *286:6 0.000201503
66 *4275:B1 *4275:A1 4.99619e-05
67 *4275:B1 *4275:A2 5.05521e-05
68 *4275:B1 *4278:A2 5.4155e-06
69 *4275:B1 *219:6 3.00381e-05
70 *4275:B1 *219:17 6.07328e-05
71 *4275:B1 *219:19 6.10014e-05
72 *4275:B1 *262:8 0.000181906
73 *4275:B1 *275:10 0
74 *140:18 *4381:CLK 0
75 *140:18 *4382:CLK 0.000138799
76 *140:18 *4394:CLK 0
77 *140:18 *4398:CLK 0
78 *140:18 *204:10 6.99988e-05
79 *140:18 *260:96 0.000238137
80 *140:18 *261:84 0
81 *140:18 *287:14 0
82 *140:38 *4124:B2 0
83 *140:38 *4381:D 0
84 *140:38 *287:14 0
85 *140:38 *373:222 4.27658e-05
86 *140:51 *4122:A1 0
87 *140:51 *356:18 2.7881e-05
88 *140:51 *356:27 5.53249e-06
89 *140:51 *373:222 6.44307e-05
90 *140:51 *373:231 0.000105607
91 *140:51 *373:244 2.04147e-05
92 *140:66 *4110:C 4.66742e-05
93 *140:66 *4380:CLK 0.00011577
94 *140:66 *4380:D 1.43717e-05
95 *140:66 *200:23 9.37731e-05
96 *140:66 *278:12 8.73389e-06
97 *140:72 *4247:A 0.000158965
98 *140:72 *4281:C 0.000113247
99 *140:72 *4485:A 6.97118e-05
100 *140:81 *4278:B1 2.75229e-05
101 *140:89 *4280:C 9.428e-05
102 *140:89 *219:19 1.1561e-05
103 *140:89 *274:16 8.47372e-05
104 *140:100 *4104:C 5.16348e-05
105 *140:100 *4107:A 3.18137e-05
106 *140:100 *4107:D_N 0
107 *140:100 *4117:B 6.08902e-05
108 *140:100 *4120:C 0
109 *140:100 *4265:B 0
110 *140:100 *4266:A1 0
111 *140:100 *274:16 0.000183745
112 *140:100 *274:20 0.000131408
113 *140:100 *275:18 6.0236e-05
114 *140:100 *284:49 0.000250623
115 *140:108 *4265:B 0
116 *140:108 *4266:A2 3.68769e-05
117 *140:108 *4386:D 0
118 *140:108 *4510:A 8.8266e-05
119 *140:108 *283:23 0
120 *140:108 *284:10 7.4027e-05
121 *140:108 *284:36 6.54163e-05
122 *140:108 *284:49 0.000155176
123 *140:108 *410:14 0
124 *140:132 *4264:B 5.78276e-05
125 *140:132 *4461:A 0.000164274
126 *140:132 *4495:A 0.000272984
127 *140:181 *200:23 2.92496e-05
128 *140:181 *273:12 0.000110323
129 *4121:D *140:100 0
130 *4122:B1_N *140:38 0
131 *4122:B1_N *140:51 0
132 *4144:B *140:8 2.75145e-05
133 *4152:A3 *4152:B1 2.91343e-05
134 *4382:D *140:18 9.03432e-05
135 *4396:D *4152:B1 5.39718e-05
136 *4398:D *4252:B 0
137 *4398:D *140:18 0
138 *4486:A *140:72 0.00013797
139 *4598:A *4275:B1 0.000235568
140 *134:40 *4244:C 7.26629e-05
141 *134:40 *140:66 5.2089e-05
142 *134:40 *140:181 0.000120321
*RES
1 *4144:Y *140:8 4.395 
2 *140:8 *140:18 16.27 
3 *140:18 *4252:B 9.78 
4 *140:18 *4254:B1 3.6 
5 *140:8 *140:38 2.655 
6 *140:38 *4248:B1 9.585 
7 *140:38 *140:51 5.97 
8 *140:51 *140:53 2 
9 *140:53 *4145:B1 1.6 
10 *140:53 *140:66 11.525 
11 *140:66 *140:72 11.09 
12 *140:72 *4281:A 1.6 
13 *140:72 *140:81 3.135 
14 *140:81 *140:83 2 
15 *140:83 *140:89 5.195 
16 *140:89 *4272:B1 3.43 
17 *140:89 *140:100 10.265 
18 *140:100 *140:108 9.215 
19 *140:108 *4260:B1 1.6 
20 *140:108 *4257:B1 3.085 
21 *140:100 *140:124 2.45 
22 *140:124 *140:132 8.435 
23 *140:132 *4263:B1 8.49 
24 *140:132 *4269:B1 9.36 
25 *140:124 *4266:B1 1.6 
26 *140:83 *4275:B1 12.705 
27 *140:81 *4277:B1 1.6 
28 *140:66 *140:181 2.655 
29 *140:181 *4246:B1 4.05 
30 *140:181 *4244:C 7.065 
31 *140:51 *4152:B1 12.9375 
*END

*D_NET *141 0.000871991
*CONN
*I *4286:A I *D sky130_fd_sc_hd__nor2_1
*I *4147:B1 I *D sky130_fd_sc_hd__a31o_1
*I *4146:Y O *D sky130_fd_sc_hd__nor3_1
*CAP
1 *4286:A 0
2 *4147:B1 0.000137359
3 *4146:Y 0.000133067
4 *141:10 0.000270426
5 *4147:B1 *4285:C1 2.68526e-05
6 *4147:B1 *4337:B1 0.00013521
7 *4147:B1 *265:12 1.26548e-05
8 *141:10 *4132:A1 0
9 *141:10 *4146:C 7.00889e-06
10 *141:10 *4285:C1 1.76154e-05
11 *141:10 *4286:B 8.40213e-05
12 *141:10 *225:10 4.77757e-05
*RES
1 *4146:Y *141:10 4.15 
2 *141:10 *4147:B1 7.94 
3 *141:10 *4286:A 1.6 
*END

*D_NET *142 0.012043
*CONN
*I *4177:A I *D sky130_fd_sc_hd__or2_1
*I *4180:A I *D sky130_fd_sc_hd__or2_1
*I *4183:A I *D sky130_fd_sc_hd__or2_1
*I *4284:A3 I *D sky130_fd_sc_hd__a31o_1
*I *4151:A2 I *D sky130_fd_sc_hd__a22o_1
*I *4186:A I *D sky130_fd_sc_hd__or2_1
*I *4174:A I *D sky130_fd_sc_hd__or2_1
*I *4171:A I *D sky130_fd_sc_hd__or2_1
*I *4148:X O *D sky130_fd_sc_hd__and2_2
*CAP
1 *4177:A 0.000633557
2 *4180:A 0.000162399
3 *4183:A 0
4 *4284:A3 0
5 *4151:A2 0.000553878
6 *4186:A 7.67844e-05
7 *4174:A 0.000174704
8 *4171:A 0
9 *4148:X 0.000407129
10 *142:57 0.00141084
11 *142:49 0.00093754
12 *142:36 0.000481497
13 *142:32 0.000689657
14 *142:28 0.000998611
15 *142:12 0.000174704
16 *142:10 0.000569061
17 *4151:A2 *535:DIODE 2.49909e-05
18 *4151:A2 *4151:A1 9.90189e-05
19 *4151:A2 *4151:B2 2.96334e-05
20 *4151:A2 *4189:A1 0
21 *4151:A2 *259:14 0
22 *4151:A2 *350:14 0
23 *4151:A2 *373:66 0.000177568
24 *4151:A2 *373:68 6.45236e-05
25 *4151:A2 *373:70 6.68849e-05
26 *4151:A2 *373:72 0.000108329
27 *4151:A2 *373:74 0.000531995
28 *4151:A2 *373:132 4.10132e-05
29 *4174:A *4171:B 8.23457e-05
30 *4174:A *4601:A 4.8854e-05
31 *4177:A *4160:A1 2.99518e-06
32 *4177:A *4172:A1 0.000230915
33 *4177:A *4178:A1 3.90775e-05
34 *4177:A *4354:D 0.000141606
35 *4177:A *4577:A 8.59258e-05
36 *4177:A *362:145 4.43871e-06
37 *4177:A *373:343 0
38 *4180:A *4163:A1 4.82863e-05
39 *4180:A *4179:A0 4.82863e-05
40 *4180:A *4180:B 9.42334e-05
41 *4180:A *4182:S 2.24912e-05
42 *4186:A *4186:B 2.0514e-05
43 *142:10 *4102:A 8.69182e-05
44 *142:10 *4156:B1 0.000437089
45 *142:10 *4172:A1 7.36562e-05
46 *142:10 *259:53 2.97004e-06
47 *142:10 *259:64 0.000112794
48 *142:10 *360:62 0.000198939
49 *142:28 *4172:A1 0.000140844
50 *142:28 *373:48 0
51 *142:28 *373:343 0
52 *142:32 *4179:A1 0.000161529
53 *142:32 *153:30 0.000214831
54 *142:32 *153:34 2.36616e-05
55 *142:36 *4185:A0 4.82863e-05
56 *142:36 *4186:B 0.000210149
57 *142:36 *153:30 9.66106e-05
58 *142:49 *4183:B 0.000209493
59 *142:49 *4184:A2 0.000101317
60 *142:49 *143:74 1.08723e-05
61 *142:57 *4183:B 8.7152e-06
62 *142:57 *143:74 9.58678e-06
63 *4336:A1 *4151:A2 0
64 *4479:A *4151:A2 4.00541e-06
65 *4520:A *4151:A2 1.15688e-05
66 *4573:A *4177:A 0.000232209
67 *4578:A *4177:A 4.82369e-05
68 *100:79 *4151:A2 0.000314459
*RES
1 *4148:X *142:10 12.015 
2 *142:10 *142:12 2 
3 *142:12 *4171:A 1.6 
4 *142:12 *4174:A 4.48 
5 *142:10 *142:28 2.91 
6 *142:28 *142:32 6.245 
7 *142:32 *142:36 5.985 
8 *142:36 *4186:A 2.74 
9 *142:36 *142:49 4.85 
10 *142:49 *142:57 2.55237 
11 *142:57 *4151:A2 17.88 
12 *142:57 *4284:A3 3.6 
13 *142:49 *4183:A 3.6 
14 *142:32 *4180:A 8.33 
15 *142:28 *4177:A 15.105 
*END

*D_NET *143 0.0114855
*CONN
*I *4184:A2 I *D sky130_fd_sc_hd__o211a_1
*I *4187:A2 I *D sky130_fd_sc_hd__o211a_1
*I *4189:A2 I *D sky130_fd_sc_hd__o211a_1
*I *4190:C I *D sky130_fd_sc_hd__and3_1
*I *4172:A2 I *D sky130_fd_sc_hd__o211a_1
*I *4178:A2 I *D sky130_fd_sc_hd__o211a_1
*I *4181:A2 I *D sky130_fd_sc_hd__o211a_1
*I *4175:A2 I *D sky130_fd_sc_hd__o211a_1
*I *4149:Y O *D sky130_fd_sc_hd__nand2_2
*CAP
1 *4184:A2 0.000234652
2 *4187:A2 0
3 *4189:A2 0.000156594
4 *4190:C 8.18742e-05
5 *4172:A2 0
6 *4178:A2 0.000582769
7 *4181:A2 9.17083e-05
8 *4175:A2 0.000408257
9 *4149:Y 0
10 *143:88 0.000448066
11 *143:80 0.000403424
12 *143:74 0.000644028
13 *143:31 0.000989203
14 *143:16 0.000722982
15 *143:14 0.000590429
16 *143:4 0.000805979
17 *4175:A2 *4156:B1 0
18 *4175:A2 *4170:A0 0.000122702
19 *4175:A2 *4170:S 2.05056e-05
20 *4175:A2 *4172:B1 9.50342e-06
21 *4175:A2 *4175:B1 3.7837e-05
22 *4175:A2 *4351:CLK 9.50342e-06
23 *4175:A2 *4351:D 8.34348e-05
24 *4175:A2 *4583:A 0.000910501
25 *4175:A2 *4584:A 0
26 *4175:A2 *327:8 9.12016e-05
27 *4175:A2 *362:35 3.04704e-05
28 *4175:A2 *362:107 5.4003e-05
29 *4178:A2 *4160:A1 0.00012969
30 *4178:A2 *4178:B1 1.88656e-05
31 *4178:A2 *4181:C1 3.01119e-05
32 *4178:A2 *267:14 3.46196e-05
33 *4178:A2 *362:137 9.50342e-06
34 *4181:A2 *551:DIODE 3.64998e-06
35 *4181:A2 *4181:C1 4.66108e-05
36 *4181:A2 *362:145 8.23457e-05
37 *4181:A2 *373:355 6.07575e-06
38 *4184:A2 *4183:B 4.11198e-05
39 *4184:A2 *4184:B1 0.000496735
40 *4184:A2 *4184:C1 1.52862e-05
41 *4184:A2 *331:12 0
42 *4189:A2 *4284:B1 1.44259e-05
43 *4189:A2 *264:117 0.000113972
44 *4189:A2 *373:66 3.77199e-05
45 *4189:A2 *373:68 2.87867e-05
46 *4189:A2 *373:70 9.3062e-06
47 *4190:C *264:119 3.81285e-05
48 *143:14 *4149:A 9.2741e-05
49 *143:14 *4169:A 1.47347e-05
50 *143:14 *4172:C1 8.64667e-05
51 *143:14 *153:8 0.00015639
52 *143:31 *4172:B1 0.000104287
53 *143:31 *4180:B 0
54 *143:31 *4182:S 0
55 *143:31 *4354:CLK 0.00011852
56 *143:31 *4571:A 6.28843e-05
57 *143:31 *267:14 0.000140912
58 *143:31 *362:107 0.000199032
59 *143:31 *362:137 0.000610174
60 *143:31 *373:60 3.05807e-05
61 *143:74 *4149:A 9.53428e-06
62 *143:74 *4169:A 1.22762e-05
63 *143:74 *4184:C1 8.68097e-06
64 *143:74 *4191:A3 5.83121e-06
65 *143:74 *4357:D 0
66 *143:80 *4184:B1 2.75145e-05
67 *143:80 *4187:C1 0.000201503
68 *143:80 *362:117 6.6564e-05
69 *143:80 *373:64 4.58257e-05
70 *143:88 *4187:A1 8.7152e-06
71 *143:88 *4187:B1 8.7152e-06
72 *143:88 *4284:B1 5.35627e-05
73 *97:77 *4181:A2 1.91597e-05
74 *100:90 *4189:A2 2.86623e-05
75 *133:42 *4189:A2 2.92496e-05
76 *133:42 *4190:C 4.66108e-05
77 *133:42 *143:74 2.75229e-05
78 *133:42 *143:88 0.000188069
79 *133:51 *143:14 1.96048e-05
80 *133:55 *143:74 0
81 *133:93 *143:14 0.000252809
82 *142:49 *4184:A2 0.000101317
83 *142:49 *143:74 1.08723e-05
84 *142:57 *143:74 9.58678e-06
*RES
1 *4149:Y *143:4 1.6 
2 *143:4 *143:14 9.3 
3 *143:14 *143:16 2 
4 *143:16 *4175:A2 15 
5 *143:16 *143:31 9.54 
6 *143:31 *4181:A2 5.46 
7 *143:31 *4178:A2 6.29027 
8 *143:14 *4172:A2 1.6 
9 *143:4 *143:74 5.21 
10 *143:74 *143:80 6.26 
11 *143:80 *143:88 7.21 
12 *143:88 *4190:C 2.6425 
13 *143:88 *4189:A2 8.96 
14 *143:80 *4187:A2 1.6 
15 *143:74 *4184:A2 9.825 
*END

*D_NET *144 0.0185785
*CONN
*I *4336:C1 I *D sky130_fd_sc_hd__o211a_1
*I *4330:B1 I *D sky130_fd_sc_hd__o21ai_1
*I *4328:B1 I *D sky130_fd_sc_hd__o21ai_1
*I *4326:B I *D sky130_fd_sc_hd__and3b_1
*I *4322:B1 I *D sky130_fd_sc_hd__o21ai_1
*I *4320:B1 I *D sky130_fd_sc_hd__o21ai_1
*I *4314:B1 I *D sky130_fd_sc_hd__o21ai_1
*I *4151:B1 I *D sky130_fd_sc_hd__a22o_1
*I *4301:C I *D sky130_fd_sc_hd__and3b_1
*I *4302:B1 I *D sky130_fd_sc_hd__o21ai_1
*I *4317:B1 I *D sky130_fd_sc_hd__o21ai_1
*I *4312:B I *D sky130_fd_sc_hd__and3b_1
*I *4334:A I *D sky130_fd_sc_hd__and3_1
*I *4307:B I *D sky130_fd_sc_hd__and3b_1
*I *4309:C1 I *D sky130_fd_sc_hd__o211a_1
*I *4150:Y O *D sky130_fd_sc_hd__nor2_4
*CAP
1 *4336:C1 1.90984e-05
2 *4330:B1 0.000178296
3 *4328:B1 0
4 *4326:B 6.04177e-05
5 *4322:B1 0.000455696
6 *4320:B1 0
7 *4314:B1 0.000134662
8 *4151:B1 0
9 *4301:C 0
10 *4302:B1 0.000111925
11 *4317:B1 0
12 *4312:B 0
13 *4334:A 0.000407751
14 *4307:B 0.000111549
15 *4309:C1 0.000187564
16 *4150:Y 2.4072e-05
17 *144:148 0.000497637
18 *144:142 0.000876739
19 *144:140 0.000449111
20 *144:138 0.00106249
21 *144:124 0.00108323
22 *144:122 0.000668508
23 *144:95 0.000251061
24 *144:68 0.000712994
25 *144:60 0.00088315
26 *144:26 0.000376382
27 *144:24 0.000938232
28 *144:18 0.000687314
29 *144:10 0.000437384
30 *144:6 0.000672669
31 *4302:B1 *4301:A_N 4.66108e-05
32 *4302:B1 *4301:B 3.09179e-05
33 *4302:B1 *4303:B1 1.16578e-05
34 *4309:C1 *4304:A1 4.11281e-05
35 *4309:C1 *4304:B1 0.000204449
36 *4309:C1 *4472:A 8.53113e-06
37 *4309:C1 *4473:A 0.000122325
38 *4309:C1 *446:10 3.56097e-05
39 *4314:B1 *4313:B 0
40 *4314:B1 *4315:B 0.00018726
41 *4314:B1 *243:10 0
42 *4314:B1 *261:46 8.44359e-05
43 *4322:B1 *4321:B 5.07419e-05
44 *4322:B1 *4322:A1 0.000278111
45 *4322:B1 *4322:A2 0.00016569
46 *4322:B1 *247:12 2.86265e-06
47 *4322:B1 *261:40 0
48 *4330:B1 *4333:C 2.7881e-05
49 *4330:B1 *4542:A 0
50 *4330:B1 *471:51 0.000107245
51 *4334:A *4128:A 5.51245e-05
52 *4334:A *4129:A 0
53 *4334:A *4312:C 0.000249234
54 *4334:A *4318:A 8.53113e-06
55 *4334:A *4324:B1 0
56 *4334:A *4335:A3 2.75145e-05
57 *4334:A *4408:CLK 0
58 *4334:A *242:14 2.42236e-05
59 *4334:A *519:19 1.44259e-05
60 *4336:C1 *4336:A2 4.00541e-06
61 *144:6 *549:DIODE 1.47347e-05
62 *144:10 *4151:A1 3.57846e-05
63 *144:10 *4603:A 0.000206116
64 *144:10 *373:74 8.13399e-05
65 *144:18 *4151:A1 2.61015e-05
66 *144:18 *4305:A 6.11009e-05
67 *144:18 *264:14 3.50657e-05
68 *144:24 *4127:C 1.61831e-05
69 *144:24 *4127:D_N 0.00023468
70 *144:24 *4305:B 4.28396e-05
71 *144:24 *4472:A 3.09233e-05
72 *144:24 *238:14 0
73 *144:24 *388:23 0.000219005
74 *144:24 *446:10 2.75538e-05
75 *144:24 *446:36 2.46007e-05
76 *144:26 *4304:B1 0.000237369
77 *144:26 *4472:A 0.000268973
78 *144:26 *388:23 2.92496e-05
79 *144:60 *4306:A 0.000174602
80 *144:60 *4306:B 6.50552e-05
81 *144:60 *4310:B1 8.8266e-05
82 *144:60 *4311:B 0.000163199
83 *144:60 *4317:A1 0
84 *144:60 *4317:A2 0
85 *144:60 *234:26 2.33169e-05
86 *144:60 *234:28 1.60203e-05
87 *144:60 *238:14 9.80943e-06
88 *144:60 *239:12 3.72916e-05
89 *144:60 *242:14 7.71027e-05
90 *144:60 *353:16 0.000121883
91 *144:60 *388:8 4.66108e-05
92 *144:60 *407:12 1.61831e-05
93 *144:68 *4128:B 0
94 *144:68 *4408:CLK 3.90349e-05
95 *144:68 *4408:D 3.51254e-06
96 *144:95 *4127:C 1.12578e-05
97 *144:95 *4301:A_N 8.69098e-05
98 *144:122 *549:DIODE 8.40269e-05
99 *144:122 *4336:A2 6.3889e-05
100 *144:124 *4336:A2 7.10578e-05
101 *144:138 *4168:B1 0
102 *144:138 *4328:A2 1.89685e-05
103 *144:138 *4414:CLK 0.000233786
104 *144:138 *4414:D 0.000168621
105 *144:138 *4544:A 2.77283e-05
106 *144:138 *259:106 0.000235568
107 *144:138 *261:8 4.58257e-05
108 *144:138 *261:16 0.000154488
109 *144:140 *4324:A2 0
110 *144:140 *4326:C 4.05358e-05
111 *144:140 *4328:A2 0.000296161
112 *144:140 *247:25 0
113 *144:140 *261:16 3.09233e-05
114 *144:140 *261:29 0
115 *144:140 *261:40 0
116 *144:140 *458:20 0
117 *144:142 *247:25 0
118 *144:148 *4129:C 0
119 *144:148 *4315:B 6.07412e-05
120 *144:148 *4320:A1 8.8266e-05
121 *144:148 *4320:A2 0.000124895
122 *144:148 *4524:A 2.30292e-05
123 *144:148 *247:25 0
124 *144:148 *261:40 0
125 *144:148 *261:46 0
126 *4131:A *144:24 9.50342e-06
127 *4336:A1 *144:122 0.000313846
128 *4474:A *4307:B 4.11678e-06
129 *4492:A *144:68 1.48249e-05
130 *4501:A *4326:B 5.05437e-05
131 *4525:A *4322:B1 4.66742e-05
132 *4604:A *144:122 9.07793e-05
133 *100:106 *144:10 0.00011852
134 *130:16 *144:10 0.000296942
135 *130:16 *144:18 0.000216156
*RES
1 *4150:Y *144:6 2.05 
2 *144:6 *144:10 8.225 
3 *144:10 *144:18 8.015 
4 *144:18 *144:24 7.685 
5 *144:24 *144:26 3.165 
6 *144:26 *4309:C1 8.19 
7 *144:26 *4307:B 4.74 
8 *144:24 *144:60 11.825 
9 *144:60 *144:68 7.9 
10 *144:68 *4334:A 12.98 
11 *144:68 *4312:B 1.6 
12 *144:60 *4317:B1 1.6 
13 *144:18 *144:95 1.83 
14 *144:95 *4302:B1 3.715 
15 *144:95 *4301:C 1.6 
16 *144:10 *4151:B1 3.6 
17 *144:6 *144:122 8.31 
18 *144:122 *144:124 2.52 
19 *144:124 *144:138 15.965 
20 *144:138 *144:140 6.99 
21 *144:140 *144:142 0.87 
22 *144:142 *144:148 8.525 
23 *144:148 *4314:B1 8.795 
24 *144:148 *4320:B1 1.6 
25 *144:142 *4322:B1 15.055 
26 *144:140 *4326:B 4.395 
27 *144:138 *4328:B1 3.6 
28 *144:124 *4330:B1 9.275 
29 *144:122 *4336:C1 1.96 
*END

*D_NET *145 0.00172315
*CONN
*I *4154:B1_N I *D sky130_fd_sc_hd__o21ba_1
*I *4153:X O *D sky130_fd_sc_hd__a21o_1
*CAP
1 *4154:B1_N 0.000154149
2 *4153:X 0.000154149
3 *4154:B1_N *4157:A 3.7712e-05
4 *4154:B1_N *4562:A 0.00034189
5 *4154:B1_N *4564:A 0.000200615
6 *4154:B1_N *495:12 0.000116165
7 *4153:A2 *4154:B1_N 0.00026617
8 *100:263 *4154:B1_N 0.000113572
9 *133:166 *4154:B1_N 0.000338722
*RES
1 *4153:X *4154:B1_N 14.205 
*END

*D_NET *146 0.00603036
*CONN
*I *4584:A I *D sky130_fd_sc_hd__dlygate4sd3_1
*I *4155:X O *D sky130_fd_sc_hd__or2_1
*CAP
1 *4584:A 0.00248262
2 *4155:X 0.00248262
3 *4584:A *4155:A 0.000150019
4 *4584:A *4156:C1 6.38786e-05
5 *4584:A *4172:B1 0
6 *4584:A *4188:B1 7.24949e-05
7 *4584:A *4567:A 1.00941e-05
8 *4584:A *153:21 7.97252e-05
9 *4584:A *335:18 0
10 *4584:A *362:117 0.000113255
11 *4584:A *373:60 0.000133613
12 uart_txd *4584:A 0.000293381
13 *4148:B *4584:A 0
14 *4155:B *4584:A 0.000148669
15 *4175:A2 *4584:A 0
*RES
1 *4155:X *4584:A 20.8194 
*END

*D_NET *147 0.00122404
*CONN
*I *4564:A I *D sky130_fd_sc_hd__dlygate4sd3_1
*I *4157:X O *D sky130_fd_sc_hd__or2_1
*CAP
1 *4564:A 0.000185806
2 *4157:X 0.000185806
3 *4564:A *4157:A 0.00051364
4 *4154:A2 *4564:A 0
5 *4154:B1_N *4564:A 0.000200615
6 *4157:B *4564:A 6.90876e-05
7 *133:166 *4564:A 6.90876e-05
*RES
1 *4157:X *4564:A 9.2 
*END

*D_NET *148 0.000595377
*CONN
*I *4568:A I *D sky130_fd_sc_hd__dlygate4sd3_1
*I *4159:X O *D sky130_fd_sc_hd__or2_1
*CAP
1 *4568:A 0.000297689
2 *4159:X 0.000297689
*RES
1 *4159:X *4568:A 7.55 
*END

*D_NET *149 0.00082071
*CONN
*I *4162:B1 I *D sky130_fd_sc_hd__a21o_1
*I *4161:X O *D sky130_fd_sc_hd__a21o_1
*CAP
1 *4162:B1 0.000187926
2 *4161:X 0.000187926
3 *4162:B1 *4353:D 4.58257e-05
4 *4563:A *4162:B1 0.000164352
5 *4578:A *4162:B1 0.00023468
*RES
1 *4161:X *4162:B1 7.79 
*END

*D_NET *150 0.00318191
*CONN
*I *4164:B1 I *D sky130_fd_sc_hd__a21o_1
*I *4163:X O *D sky130_fd_sc_hd__a21o_1
*CAP
1 *4164:B1 0.00113146
2 *4163:X 0.00113146
3 *4164:B1 *4160:A1 0
4 *4164:B1 *4162:A1 0.0001472
5 *4164:B1 *4346:D 1.5693e-05
6 *4164:B1 *4348:D 8.69282e-05
7 *4164:B1 *4570:A 0.000195432
8 *4164:B1 *4614:A 4.40048e-05
9 *4164:B1 *267:65 0.000212781
10 *4164:B1 *267:72 6.27438e-05
11 *4164:B1 *478:6 2.05498e-05
12 *4163:B1 *4164:B1 4.88478e-05
13 *4563:A *4164:B1 0
14 *4578:A *4164:B1 0
15 *134:97 *4164:B1 3.12193e-05
16 *134:107 *4164:B1 5.35988e-05
*RES
1 *4163:X *4164:B1 24.87 
*END

*D_NET *151 0.00687636
*CONN
*I *4166:B1 I *D sky130_fd_sc_hd__a21o_1
*I *4165:X O *D sky130_fd_sc_hd__a21o_1
*CAP
1 *4166:B1 0
2 *4165:X 0.00227114
3 *151:16 0.00227114
4 *151:16 *567:DIODE 0.00010596
5 *151:16 *4166:A1 6.47326e-05
6 *151:16 *4231:B1 0
7 *151:16 *4394:D 6.4526e-05
8 *151:16 *4521:A 4.82919e-05
9 *151:16 *259:160 0.00109342
10 *151:16 *356:12 0
11 *151:16 *356:65 0
12 *151:16 *356:78 0
13 *151:16 *366:12 0
14 *151:16 *373:270 4.24292e-06
15 *151:16 *450:8 0.000331333
16 *151:16 *450:21 0.000335865
17 *151:16 *488:66 0.000135547
18 *151:16 *511:10 1.08758e-05
19 *546:DIODE *151:16 7.35813e-05
20 *4143:B1 *151:16 1.7396e-05
21 *4166:A2 *151:16 4.82919e-05
22 *4167:A2 *151:16 0
23 *4395:D *151:16 0
24 *100:328 *151:16 0
25 *122:32 *151:16 0
26 *133:10 *151:16 0
27 *134:14 *151:16 0
*RES
1 *4165:X *151:16 48.605 
2 *151:16 *4166:B1 1.6 
*END

*D_NET *152 0.0052855
*CONN
*I *4168:B1 I *D sky130_fd_sc_hd__a21o_1
*I *4167:X O *D sky130_fd_sc_hd__a21o_1
*CAP
1 *4168:B1 0.00167201
2 *4167:X 0.00167201
3 *4168:B1 *4282:B 0.000208255
4 *4168:B1 *4327:A 0
5 *4168:B1 *4328:A2 8.47629e-05
6 *4168:B1 *4329:B 8.71195e-05
7 *4168:B1 *4493:A 5.83121e-06
8 *4168:B1 *4528:A 0.000507942
9 *4168:B1 *252:12 5.21545e-05
10 *4168:B1 *252:33 0.000112992
11 *4168:B1 *259:106 0.000141599
12 *4168:B1 *261:16 0
13 *4168:B1 *261:84 0
14 *4168:B1 *458:12 0.000312964
15 *4168:A2 *4168:B1 8.8266e-05
16 *100:20 *4168:B1 4.82919e-05
17 *134:24 *4168:B1 0.000291297
18 *144:138 *4168:B1 0
*RES
1 *4167:X *4168:B1 39.795 
*END

*D_NET *153 0.00616655
*CONN
*I *4182:S I *D sky130_fd_sc_hd__mux2_1
*I *4179:S I *D sky130_fd_sc_hd__mux2_1
*I *4173:S I *D sky130_fd_sc_hd__mux2_1
*I *4170:S I *D sky130_fd_sc_hd__mux2_1
*I *4176:S I *D sky130_fd_sc_hd__mux2_1
*I *4185:S I *D sky130_fd_sc_hd__mux2_1
*I *4188:B1 I *D sky130_fd_sc_hd__a22o_1
*I *4169:Y O *D sky130_fd_sc_hd__nand2_2
*CAP
1 *4182:S 0.000179893
2 *4179:S 0
3 *4173:S 3.67146e-05
4 *4170:S 9.35696e-05
5 *4176:S 4.97119e-05
6 *4185:S 0
7 *4188:B1 0.00012701
8 *4169:Y 5.23905e-05
9 *153:55 0.000584989
10 *153:34 0.000770608
11 *153:30 0.000463038
12 *153:23 0.000196847
13 *153:21 0.000357345
14 *153:8 0.000356853
15 *4170:S *4170:A0 0.00020843
16 *4170:S *362:94 0.00013994
17 *4173:S *362:94 0.000196045
18 *4173:S *373:48 0.000196045
19 *4176:S *4176:A1 1.08758e-05
20 *4176:S *4614:A 1.91597e-05
21 *4182:S *4163:A1 0.000124895
22 *4182:S *4180:B 0
23 *4182:S *4183:B 0
24 *4182:S *4185:A0 1.1561e-05
25 *4182:S *4185:A1 4.94326e-05
26 *4182:S *331:12 0
27 *4188:B1 *4188:B2 4.82863e-05
28 *4188:B1 *4583:A 0.000229661
29 *153:21 *4180:B 0
30 *153:21 *4185:A0 0.000159763
31 *153:21 *4188:B2 3.57768e-05
32 *153:21 *4583:A 2.23922e-05
33 *153:21 *373:60 0
34 *153:30 *373:52 0.000194694
35 *153:34 *4179:A1 2.86265e-06
36 *153:34 *4614:A 2.8185e-05
37 *153:55 *4170:A0 4.14369e-05
38 *153:55 *4175:B1 0
39 *153:55 *4176:A1 2.09714e-05
40 *153:55 *4575:A 0.000114492
41 *153:55 *4576:A 4.66108e-05
42 *153:55 *4599:A 0
43 *153:55 *4614:A 4.30188e-05
44 *153:55 *346:10 0.000154327
45 led[3] *4176:S 0
46 led[3] *153:34 3.81842e-05
47 led[3] *153:55 1.80065e-05
48 *4175:A2 *4170:S 2.05056e-05
49 *4180:A *4182:S 2.24912e-05
50 *4584:A *4188:B1 7.24949e-05
51 *4584:A *153:21 7.97252e-05
52 *133:93 *153:8 5.58206e-05
53 *142:32 *153:30 0.000214831
54 *142:32 *153:34 2.36616e-05
55 *142:36 *153:30 9.66106e-05
56 *143:14 *153:8 0.00015639
57 *143:31 *4182:S 0
*RES
1 *4169:Y *153:8 5.085 
2 *153:8 *4188:B1 6.885 
3 *153:8 *153:21 4.44 
4 *153:21 *153:23 2 
5 *153:23 *4185:S 1.6 
6 *153:23 *153:30 4.935 
7 *153:30 *153:34 3.48 
8 *153:34 *4176:S 2.77 
9 *153:34 *153:55 9.095 
10 *153:55 *4170:S 6.285 
11 *153:55 *4173:S 5.43 
12 *153:30 *4179:S 1.6 
13 *153:21 *4182:S 7.14 
*END

*D_NET *154 0.000911099
*CONN
*I *4171:B I *D sky130_fd_sc_hd__or2_1
*I *4170:X O *D sky130_fd_sc_hd__mux2_1
*CAP
1 *4171:B 0.000210731
2 *4170:X 0.000210731
3 *4171:B *4170:A0 0
4 *4171:B *259:64 0.000263556
5 *4171:B *327:8 4.99619e-05
6 *4171:B *346:10 0
7 *4174:A *4171:B 8.23457e-05
8 *133:93 *4171:B 9.37731e-05
*RES
1 *4170:X *4171:B 11.61 
*END

*D_NET *155 0.000818804
*CONN
*I *4172:B1 I *D sky130_fd_sc_hd__o211a_1
*I *4171:X O *D sky130_fd_sc_hd__or2_1
*CAP
1 *4172:B1 0.000234235
2 *4171:X 0.000234235
3 *4172:B1 *4156:B1 0.000232105
4 *4172:B1 *373:60 4.43871e-06
5 *4175:A2 *4172:B1 9.50342e-06
6 *4584:A *4172:B1 0
7 *143:31 *4172:B1 0.000104287
*RES
1 *4171:X *4172:B1 10.755 
*END

*D_NET *156 0.00110301
*CONN
*I *4600:A I *D sky130_fd_sc_hd__dlygate4sd3_1
*I *4173:X O *D sky130_fd_sc_hd__mux2_1
*CAP
1 *4600:A 0.000333057
2 *4173:X 0.000333057
3 *4600:A *373:48 0.000383317
4 *4600:A *495:12 4.40812e-05
5 *100:206 *4600:A 0
6 *133:114 *4600:A 9.50342e-06
*RES
1 *4173:X *4600:A 12.135 
*END

*D_NET *157 0.00176278
*CONN
*I *4601:A I *D sky130_fd_sc_hd__dlygate4sd3_1
*I *4174:X O *D sky130_fd_sc_hd__or2_1
*CAP
1 *4601:A 0.000565733
2 *4174:X 0.000565733
3 *4601:A *4174:B 8.38119e-05
4 *4601:A *4175:B1 6.32125e-05
5 *4601:A *4176:A1 0.00016031
6 *4601:A *4575:A 0.000121023
7 *4174:A *4601:A 4.8854e-05
8 *133:114 *4601:A 0.000154106
*RES
1 *4174:X *4601:A 12.98 
*END

*D_NET *158 0.000146278
*CONN
*I *4576:A I *D sky130_fd_sc_hd__dlygate4sd3_1
*I *4176:X O *D sky130_fd_sc_hd__mux2_1
*CAP
1 *4576:A 3.73383e-05
2 *4176:X 3.73383e-05
3 *4576:A *346:10 2.49909e-05
4 *153:55 *4576:A 4.66108e-05
*RES
1 *4176:X *4576:A 4.01 
*END

*D_NET *159 0.000948449
*CONN
*I *4577:A I *D sky130_fd_sc_hd__dlygate4sd3_1
*I *4177:X O *D sky130_fd_sc_hd__or2_1
*CAP
1 *4577:A 0.000316609
2 *4177:X 0.000316609
3 *4577:A *4161:A1 2.66935e-05
4 *4577:A *4177:B 8.52044e-05
5 *4577:A *495:12 6.28765e-05
6 *4177:A *4577:A 8.59258e-05
7 *4578:A *4577:A 4.89988e-05
8 *133:134 *4577:A 5.53249e-06
9 *133:147 *4577:A 0
*RES
1 *4177:X *4577:A 11.79 
*END

*D_NET *160 0.000576858
*CONN
*I *4571:A I *D sky130_fd_sc_hd__dlygate4sd3_1
*I *4179:X O *D sky130_fd_sc_hd__mux2_1
*CAP
1 *4571:A 9.33114e-05
2 *4179:X 9.33114e-05
3 *4571:A *4156:B1 8.88631e-05
4 *4571:A *362:117 0.000120655
5 *4571:A *373:60 0.000117832
6 *143:31 *4571:A 6.28843e-05
*RES
1 *4179:X *4571:A 10.065 
*END

*D_NET *161 0.00084036
*CONN
*I *4572:A I *D sky130_fd_sc_hd__dlygate4sd3_1
*I *4180:X O *D sky130_fd_sc_hd__or2_1
*CAP
1 *4572:A 0.000281746
2 *4180:X 0.000281746
3 *4572:A *4184:A1 0.000201508
4 *4572:A *4354:CLK 0
5 *4572:A *4355:D 7.53592e-05
6 *4572:A *267:14 0
7 *4572:A *331:12 0
*RES
1 *4180:X *4572:A 12.39 
*END

*D_NET *162 0.000683641
*CONN
*I *4183:B I *D sky130_fd_sc_hd__or2_1
*I *4182:X O *D sky130_fd_sc_hd__mux2_1
*CAP
1 *4183:B 0.000185082
2 *4182:X 0.000185082
3 *4183:B *4185:A0 0
4 *4183:B *4185:A1 0
5 *4183:B *331:12 4.18603e-06
6 *4183:B *362:117 4.99619e-05
7 *4182:S *4183:B 0
8 *4184:A2 *4183:B 4.11198e-05
9 *142:49 *4183:B 0.000209493
10 *142:57 *4183:B 8.7152e-06
*RES
1 *4182:X *4183:B 11.325 
*END

*D_NET *163 0.00114009
*CONN
*I *4184:B1 I *D sky130_fd_sc_hd__o211a_1
*I *4183:X O *D sky130_fd_sc_hd__or2_1
*CAP
1 *4184:B1 0.000166638
2 *4183:X 0.000166638
3 *4184:B1 *4184:C1 0.000282563
4 *4184:A2 *4184:B1 0.000496735
5 *143:80 *4184:B1 2.75145e-05
*RES
1 *4183:X *4184:B1 13.365 
*END

*D_NET *164 0.000584515
*CONN
*I *4186:B I *D sky130_fd_sc_hd__or2_1
*I *4185:X O *D sky130_fd_sc_hd__mux2_1
*CAP
1 *4186:B 0.000176926
2 *4185:X 0.000176926
3 *4186:A *4186:B 2.0514e-05
4 *142:36 *4186:B 0.000210149
*RES
1 *4185:X *4186:B 5.735 
*END

*D_NET *165 0.000656303
*CONN
*I *4187:B1 I *D sky130_fd_sc_hd__o211a_1
*I *4186:X O *D sky130_fd_sc_hd__or2_1
*CAP
1 *4187:B1 0.000286483
2 *4186:X 0.000286483
3 *4187:B1 *4184:C1 0
4 *4187:B1 *4187:A1 7.46228e-05
5 *143:88 *4187:B1 8.7152e-06
*RES
1 *4186:X *4187:B1 11.01 
*END

*D_NET *166 0.00144412
*CONN
*I *4189:B1 I *D sky130_fd_sc_hd__o211a_1
*I *4188:X O *D sky130_fd_sc_hd__a22o_1
*CAP
1 *4189:B1 0.000482698
2 *4188:X 0.000482698
3 *4189:B1 *4189:A1 3.87054e-05
4 *4189:B1 *4191:B1 0.000139265
5 *4189:B1 *360:20 4.35432e-05
6 *4169:B *4189:B1 8.49205e-05
7 *4191:A2 *4189:B1 0.000122325
8 *4445:A *4189:B1 4.99619e-05
*RES
1 *4188:X *4189:B1 11.51 
*END

*D_NET *167 0.000899303
*CONN
*I *4191:B1 I *D sky130_fd_sc_hd__a31o_1
*I *4189:X O *D sky130_fd_sc_hd__o211a_1
*CAP
1 *4191:B1 0.000292297
2 *4189:X 0.000292297
3 *4191:B1 *360:20 0.0001249
4 *4189:B1 *4191:B1 0.000139265
5 *4191:A2 *4191:B1 2.05056e-05
6 *4445:A *4191:B1 3.00381e-05
*RES
1 *4189:X *4191:B1 8.495 
*END

*D_NET *168 0.00203981
*CONN
*I *4191:A3 I *D sky130_fd_sc_hd__a31o_1
*I *4284:B1 I *D sky130_fd_sc_hd__a31o_1
*I *4190:X O *D sky130_fd_sc_hd__and3_1
*CAP
1 *4191:A3 0.000421518
2 *4284:B1 0.000194426
3 *4190:X 0.000126405
4 *168:6 0.000742349
5 *4191:A3 *4169:A 4.40812e-05
6 *4191:A3 *4357:D 4.80182e-05
7 *4284:B1 *4187:A1 7.9642e-06
8 *4284:B1 *4357:D 3.05238e-05
9 *4284:B1 *264:117 7.70828e-05
10 *4284:B1 *373:64 9.4087e-05
11 *168:6 *4357:D 4.82319e-06
12 *168:6 *264:117 1.47347e-05
13 *168:6 *264:119 1.83756e-05
14 *4189:A2 *4284:B1 1.44259e-05
15 *133:42 *4191:A3 0.000126049
16 *133:42 *4284:B1 0
17 *133:42 *168:6 1.55536e-05
18 *143:74 *4191:A3 5.83121e-06
19 *143:88 *4284:B1 5.35627e-05
*RES
1 *4190:X *168:6 3.085 
2 *168:6 *4284:B1 9.74 
3 *168:6 *4191:A3 11.57 
*END

*D_NET *169 0.000521903
*CONN
*I *4193:C1 I *D sky130_fd_sc_hd__o211a_1
*I *4192:X O *D sky130_fd_sc_hd__or2_1
*CAP
1 *4193:C1 0.000185049
2 *4192:X 0.000185049
3 *4193:C1 *4192:A 3.07153e-05
4 *4193:C1 *4192:B 4.9253e-06
5 *4193:C1 *4547:A 0
6 *97:88 *4193:C1 0.000116165
*RES
1 *4192:X *4193:C1 10.065 
*END

*D_NET *170 0.000784009
*CONN
*I *4195:C1 I *D sky130_fd_sc_hd__o211a_1
*I *4194:X O *D sky130_fd_sc_hd__or2_1
*CAP
1 *4195:C1 0.00011417
2 *4194:X 0.00011417
3 *4195:C1 *4195:B1 2.16389e-05
4 *4195:C1 *301:8 0.000249234
5 *4195:C1 *479:10 0.000268278
6 *4195:A2 *4195:C1 1.65192e-05
*RES
1 *4194:X *4195:C1 10.875 
*END

*D_NET *171 0.00055743
*CONN
*I *4197:C1 I *D sky130_fd_sc_hd__o211a_1
*I *4196:X O *D sky130_fd_sc_hd__or2_1
*CAP
1 *4197:C1 0.000155619
2 *4196:X 0.000155619
3 *4197:C1 *4192:B 6.54766e-05
4 *4197:C1 *362:185 6.28843e-05
5 *97:88 *4197:C1 0.000117832
*RES
1 *4196:X *4197:C1 10.065 
*END

*D_NET *172 9.06885e-05
*CONN
*I *4199:C1 I *D sky130_fd_sc_hd__o211a_1
*I *4198:X O *D sky130_fd_sc_hd__or2_1
*CAP
1 *4199:C1 2.11983e-05
2 *4198:X 2.11983e-05
3 *4199:C1 *460:179 4.82919e-05
*RES
1 *4198:X *4199:C1 3.65 
*END

*D_NET *173 0.000373694
*CONN
*I *4201:C1 I *D sky130_fd_sc_hd__o211a_1
*I *4200:X O *D sky130_fd_sc_hd__or2_1
*CAP
1 *4201:C1 5.30211e-05
2 *4200:X 5.30211e-05
3 *4201:C1 *4200:A 4.85845e-05
4 *4201:C1 *4201:B1 0
5 *4201:C1 *373:359 9.11349e-05
6 *97:62 *4201:C1 0.000127933
*RES
1 *4200:X *4201:C1 5.4725 
*END

*D_NET *174 0.0018652
*CONN
*I *4203:C1 I *D sky130_fd_sc_hd__o211a_1
*I *4202:X O *D sky130_fd_sc_hd__or2_1
*CAP
1 *4203:C1 0.000640864
2 *4202:X 0.000640864
3 *4203:C1 *4184:C1 0
4 *4203:C1 *4187:A1 2.46089e-05
5 *4203:C1 *4203:B1 4.99619e-05
6 *4203:C1 *4363:CLK 0
7 *4203:C1 *4579:A 4.70343e-05
8 *4203:C1 *259:213 0
9 *4203:C1 *306:24 9.38176e-05
10 *4558:A *4203:C1 0.000318091
11 *97:62 *4203:C1 4.99619e-05
*RES
1 *4202:X *4203:C1 16.8 
*END

*D_NET *175 0.000501155
*CONN
*I *4205:C1 I *D sky130_fd_sc_hd__o211a_1
*I *4204:X O *D sky130_fd_sc_hd__or2_1
*CAP
1 *4205:C1 0.000157317
2 *4204:X 0.000157317
3 *4205:C1 *4205:B1 0
4 *4205:C1 *259:8 4.99619e-05
5 *4205:C1 *259:160 4.82919e-05
6 *4205:A2 *4205:C1 8.8266e-05
7 *4365:D *4205:C1 0
*RES
1 *4204:X *4205:C1 10.08 
*END

*D_NET *176 0.00132884
*CONN
*I *4207:C1 I *D sky130_fd_sc_hd__o211a_1
*I *4206:X O *D sky130_fd_sc_hd__or2_1
*CAP
1 *4207:C1 0.000324422
2 *4206:X 0.000324422
3 *4207:C1 *4100:A 0.000122331
4 *4207:C1 *4206:A 7.67415e-06
5 *4207:C1 *4206:B 3.64998e-06
6 *4207:C1 *373:164 0.000270062
7 *555:DIODE *4207:C1 3.86607e-05
8 *100:291 *4207:C1 3.67779e-05
9 *100:313 *4207:C1 0.000200845
*RES
1 *4206:X *4207:C1 14.4 
*END

*D_NET *177 0.0106522
*CONN
*I *4221:B I *D sky130_fd_sc_hd__or2_1
*I *4217:B I *D sky130_fd_sc_hd__or2_1
*I *4219:B I *D sky130_fd_sc_hd__or2_1
*I *4225:B I *D sky130_fd_sc_hd__or2_1
*I *4215:B I *D sky130_fd_sc_hd__or2_1
*I *4210:B I *D sky130_fd_sc_hd__or2_1
*I *4229:B I *D sky130_fd_sc_hd__nand2_1
*I *4228:B I *D sky130_fd_sc_hd__or2_1
*I *4213:B I *D sky130_fd_sc_hd__or2_1
*I *4223:B I *D sky130_fd_sc_hd__or2_1
*I *4208:X O *D sky130_fd_sc_hd__and2_2
*CAP
1 *4221:B 0
2 *4217:B 0
3 *4219:B 0.000649435
4 *4225:B 6.4512e-05
5 *4215:B 0
6 *4210:B 0.000293495
7 *4229:B 0
8 *4228:B 0
9 *4213:B 0.000386861
10 *4223:B 2.12348e-05
11 *4208:X 0.000292875
12 *177:109 0.000788918
13 *177:100 0.000273647
14 *177:96 0.000329534
15 *177:72 0.000732214
16 *177:59 0.000489036
17 *177:46 0.000155789
18 *177:27 0.00081638
19 *177:23 0.00113159
20 *177:10 0.000861772
21 *4210:B *4210:A 0.000124895
22 *4210:B *4212:B1 0.000120186
23 *4210:B *4213:A 0
24 *4210:B *4366:CLK 0.000348739
25 *4210:B *4560:A 0
26 *4210:B *266:151 9.50342e-06
27 *4213:B *178:69 0.000301739
28 *4219:B *4203:A1 0
29 *4219:B *4216:A1 0
30 *4219:B *4217:A 0.000363292
31 *4219:B *4219:A 4.18603e-06
32 *4219:B *460:179 0
33 *4219:B *461:25 0
34 *4219:B *468:14 8.95933e-05
35 *4223:B *4207:A1 0
36 *4223:B *460:109 1.88271e-05
37 *177:10 *4207:A1 0
38 *177:10 *4224:C1 5.33874e-05
39 *177:10 *4227:C 0
40 *177:10 *180:19 0
41 *177:10 *180:46 0
42 *177:10 *460:109 3.60648e-06
43 *177:27 *4232:C 2.59981e-05
44 *177:27 *4372:D 0.000282231
45 *177:27 *178:10 0
46 *177:27 *178:12 0
47 *177:27 *178:14 0
48 *177:27 *178:69 8.18184e-05
49 *177:27 *266:79 0
50 *177:46 *4229:A 8.23457e-05
51 *177:46 *4230:C 1.91597e-05
52 *177:46 *4232:C 3.31282e-05
53 *177:46 *379:10 0.000113262
54 *177:59 *4229:A 4.74817e-05
55 *177:59 *4230:C 2.33578e-05
56 *177:59 *379:10 0.000106548
57 *177:72 *4214:A1 0.000242664
58 *177:72 *4214:C1 4.82863e-05
59 *177:72 *4463:A 0.000241483
60 *177:72 *379:10 0.000138175
61 *177:72 *476:16 3.23663e-05
62 *177:96 *4220:B1 0
63 *177:96 *4220:C1 0
64 *177:96 *4222:A1 5.28227e-05
65 *177:100 *4220:C1 0
66 *177:100 *4222:A1 0.00013994
67 *4527:A *177:27 0
68 *4548:A *177:72 9.52646e-05
69 *122:80 *4213:B 0.000120655
*RES
1 *4208:X *177:10 8.0325 
2 *177:10 *4223:B 4.0875 
3 *177:10 *177:23 1.47027 
4 *177:23 *177:27 7.1075 
5 *177:27 *4213:B 10.035 
6 *177:27 *177:46 4.265 
7 *177:46 *4228:B 1.6 
8 *177:46 *177:59 1.71 
9 *177:59 *4229:B 1.6 
10 *177:59 *177:72 9.9 
11 *177:72 *4210:B 11.615 
12 *177:72 *4215:B 1.6 
13 *177:23 *177:96 1.6301 
14 *177:96 *177:100 3.635 
15 *177:100 *4225:B 2.395 
16 *177:100 *177:109 2.175 
17 *177:109 *4219:B 14.69 
18 *177:109 *4217:B 1.6 
19 *177:96 *4221:B 3.6 
*END

*D_NET *178 0.0104827
*CONN
*I *4222:A2 I *D sky130_fd_sc_hd__o211a_1
*I *4216:A2 I *D sky130_fd_sc_hd__o211a_1
*I *4212:A2 I *D sky130_fd_sc_hd__o211a_1
*I *4214:A2 I *D sky130_fd_sc_hd__o211a_1
*I *4218:A2 I *D sky130_fd_sc_hd__o211a_1
*I *4224:A2 I *D sky130_fd_sc_hd__o211a_1
*I *4220:A2 I *D sky130_fd_sc_hd__o211a_1
*I *4226:A2 I *D sky130_fd_sc_hd__o211a_1
*I *4209:Y O *D sky130_fd_sc_hd__nand2_2
*CAP
1 *4222:A2 8.89335e-05
2 *4216:A2 5.24313e-05
3 *4212:A2 0.000302565
4 *4214:A2 0
5 *4218:A2 0.000405593
6 *4224:A2 4.63206e-05
7 *4220:A2 0.000388947
8 *4226:A2 0.000426899
9 *4209:Y 0.000137311
10 *178:86 0.000368154
11 *178:71 0.000471182
12 *178:69 0.000270702
13 *178:61 0.000518042
14 *178:14 0.000921976
15 *178:12 0.000222601
16 *178:10 0.000418298
17 *4212:A2 *4212:C1 0.000231072
18 *4212:A2 *4213:A 0
19 *4216:A2 *4192:A 0.000190633
20 *4216:A2 *4213:A 0.00011964
21 *4218:A2 *4199:A1 0
22 *4218:A2 *4216:A1 0
23 *4218:A2 *4218:B1 0.00036641
24 *4218:A2 *4218:C1 4.99619e-05
25 *4218:A2 *180:85 0.000160658
26 *4220:A2 *4220:A1 9.53428e-06
27 *4220:A2 *4220:B1 4.66108e-05
28 *4220:A2 *4221:A 0.000199532
29 *4220:A2 *4370:CLK 0
30 *4220:A2 *4372:D 1.54049e-05
31 *4220:A2 *4557:A 0.000427088
32 *4220:A2 *266:16 0.000330308
33 *4222:A2 *4222:B1 9.53428e-06
34 *4222:A2 *180:46 6.58423e-05
35 *4224:A2 *180:38 3.26889e-05
36 *4224:A2 *455:6 4.66108e-05
37 *4226:A2 *4207:A1 9.30787e-05
38 *4226:A2 *4226:C1 0.000180373
39 *4226:A2 *180:10 9.50342e-06
40 *4226:A2 *180:19 4.21314e-05
41 *4226:A2 *441:6 0.00019637
42 *178:10 *4192:A 4.82919e-05
43 *178:10 *180:46 1.82476e-05
44 *178:12 *4207:A1 2.07184e-05
45 *178:12 *180:46 5.50989e-05
46 *178:14 *4207:A1 0.000195151
47 *178:14 *4372:D 0
48 *178:14 *4526:A 0
49 *178:61 *4372:D 4.66108e-05
50 *178:61 *180:46 0.000247569
51 *178:69 *4192:A 0.000769257
52 *178:69 *4213:A 9.27326e-05
53 *178:69 *266:79 0.000204463
54 *178:86 *4212:C1 9.50342e-06
55 *178:86 *4213:A 0
56 *178:86 *4216:A1 0
57 *178:86 *4216:C1 7.55313e-05
58 *178:86 *180:85 6.45236e-05
59 *178:86 *180:102 0.00011852
60 *4208:B *178:10 0
61 *4213:B *178:69 0.000301739
62 *4527:A *178:10 1.71013e-05
63 *4527:A *178:12 5.20968e-05
64 *4548:A *4212:A2 0.00011852
65 *122:80 *178:69 5.83121e-06
66 *133:10 *4226:A2 2.97561e-05
67 *134:83 *4224:A2 4.66742e-05
68 *177:27 *178:10 0
69 *177:27 *178:12 0
70 *177:27 *178:14 0
71 *177:27 *178:69 8.18184e-05
*RES
1 *4209:Y *178:10 5.94 
2 *178:10 *178:12 1.89 
3 *178:12 *178:14 2.4 
4 *178:14 *4226:A2 13.93 
5 *178:14 *4220:A2 13.755 
6 *178:12 *4224:A2 4.755 
7 *178:10 *178:61 5.9 
8 *178:61 *178:69 13.405 
9 *178:69 *178:71 2 
10 *178:71 *4218:A2 12.165 
11 *178:71 *178:86 2.145 
12 *178:86 *4214:A2 3.6 
13 *178:86 *4212:A2 9.42 
14 *178:69 *4216:A2 3.79 
15 *178:61 *4222:A2 3.1 
*END

*D_NET *179 0.000248599
*CONN
*I *4212:B1 I *D sky130_fd_sc_hd__o211a_1
*I *4210:X O *D sky130_fd_sc_hd__or2_1
*CAP
1 *4212:B1 3.85916e-05
2 *4210:X 3.85916e-05
3 *4212:B1 *4213:A 2.24423e-05
4 *4212:B1 *4560:A 2.87867e-05
5 *4210:B *4212:B1 0.000120186
*RES
1 *4210:X *4212:B1 8.58 
*END

*D_NET *180 0.00927954
*CONN
*I *4224:B1 I *D sky130_fd_sc_hd__o211a_1
*I *4212:C1 I *D sky130_fd_sc_hd__o211a_1
*I *4214:B1 I *D sky130_fd_sc_hd__o211a_1
*I *4216:B1 I *D sky130_fd_sc_hd__o211a_1
*I *4218:B1 I *D sky130_fd_sc_hd__o211a_1
*I *4220:B1 I *D sky130_fd_sc_hd__o211a_1
*I *4222:B1 I *D sky130_fd_sc_hd__o211a_1
*I *4227:C I *D sky130_fd_sc_hd__and3_1
*I *4226:B1 I *D sky130_fd_sc_hd__o211a_1
*I *4211:Y O *D sky130_fd_sc_hd__nor2_2
*CAP
1 *4224:B1 0
2 *4212:C1 0.000219482
3 *4214:B1 0
4 *4216:B1 0.000168148
5 *4218:B1 0.000403447
6 *4220:B1 0.00022024
7 *4222:B1 1.85694e-05
8 *4227:C 0.000409801
9 *4226:B1 0
10 *4211:Y 0.000100353
11 *180:102 0.000249164
12 *180:85 0.000316839
13 *180:70 0.000653779
14 *180:55 0.00055669
15 *180:46 0.000661724
16 *180:38 0.000602085
17 *180:19 0.00075783
18 *180:10 0.000284325
19 *4212:C1 *4376:CLK 7.70828e-05
20 *4212:C1 *4463:A 0
21 *4216:B1 *4213:A 0.000203231
22 *4216:B1 *4216:A1 5.53249e-06
23 *4216:B1 *4216:C1 2.78732e-05
24 *4216:B1 *266:151 0
25 *4218:B1 *4199:A1 0
26 *4218:B1 *4218:C1 4.99619e-05
27 *4220:B1 *570:DIODE 4.84393e-05
28 *4220:B1 *4220:C1 9.50342e-06
29 *4220:B1 *4221:A 4.82863e-05
30 *4220:B1 *4222:C1 0
31 *4220:B1 *4434:A 0
32 *4220:B1 *259:213 0.000207554
33 *4227:C *4375:CLK 4.61684e-05
34 *4227:C *488:12 8.97642e-05
35 *4227:C *488:47 7.07801e-05
36 *180:10 *4373:CLK 8.65961e-05
37 *180:10 *373:216 0.0001249
38 *180:10 *460:109 0.00020613
39 *180:19 *460:109 0.000206116
40 *180:46 *4207:A1 5.53249e-06
41 *180:46 *4224:C1 5.53249e-06
42 *180:55 *4222:C1 4.82863e-05
43 *180:70 *4434:A 5.05437e-05
44 *180:85 *4214:C1 9.50342e-06
45 *180:102 *4214:C1 0.000109016
46 *4136:C *4227:C 0
47 *4136:C *180:19 0
48 *4208:B *4227:C 0
49 *4208:B *180:46 0
50 *4212:A2 *4212:C1 0.000231072
51 *4218:A2 *4218:B1 0.00036641
52 *4218:A2 *180:85 0.000160658
53 *4220:A2 *4220:B1 4.66108e-05
54 *4222:A2 *4222:B1 9.53428e-06
55 *4222:A2 *180:46 6.58423e-05
56 *4224:A2 *180:38 3.26889e-05
57 *4226:A2 *180:10 9.50342e-06
58 *4226:A2 *180:19 4.21314e-05
59 *4227:A *4227:C 0
60 *4548:A *4212:C1 0.000141599
61 *97:12 *180:19 0
62 *97:22 *180:19 0
63 *133:10 *180:10 7.46706e-05
64 *133:10 *180:19 2.25075e-05
65 *134:83 *180:38 0.000204034
66 *177:10 *4227:C 0
67 *177:10 *180:19 0
68 *177:10 *180:46 0
69 *177:96 *4220:B1 0
70 *178:10 *180:46 1.82476e-05
71 *178:12 *180:46 5.50989e-05
72 *178:61 *180:46 0.000247569
73 *178:86 *4212:C1 9.50342e-06
74 *178:86 *180:85 6.45236e-05
75 *178:86 *180:102 0.00011852
*RES
1 *4211:Y *180:10 7.14 
2 *180:10 *4226:B1 3.6 
3 *180:10 *180:19 3.93 
4 *180:19 *4227:C 10.8075 
5 *180:19 *180:38 5.57 
6 *180:38 *180:46 12.46 
7 *180:46 *4222:B1 1.96 
8 *180:46 *180:55 3.21 
9 *180:55 *4220:B1 10.49 
10 *180:55 *180:70 2.175 
11 *180:70 *4218:B1 8.89 
12 *180:70 *180:85 4.655 
13 *180:85 *4216:B1 10.045 
14 *180:85 *180:102 1.38 
15 *180:102 *4214:B1 3.6 
16 *180:102 *4212:C1 8.52 
17 *180:38 *4224:B1 1.6 
*END

*D_NET *181 0.000330116
*CONN
*I *4214:C1 I *D sky130_fd_sc_hd__o211a_1
*I *4213:X O *D sky130_fd_sc_hd__or2_1
*CAP
1 *4214:C1 8.1655e-05
2 *4213:X 8.1655e-05
3 *177:72 *4214:C1 4.82863e-05
4 *180:85 *4214:C1 9.50342e-06
5 *180:102 *4214:C1 0.000109016
*RES
1 *4213:X *4214:C1 9.03 
*END

*D_NET *182 0.000500863
*CONN
*I *4216:C1 I *D sky130_fd_sc_hd__o211a_1
*I *4215:X O *D sky130_fd_sc_hd__or2_1
*CAP
1 *4216:C1 0.00012121
2 *4215:X 0.00012121
3 *4216:C1 *4213:A 3.18137e-05
4 *4216:C1 *4214:A1 0.000123225
5 *4216:B1 *4216:C1 2.78732e-05
6 *178:86 *4216:C1 7.55313e-05
*RES
1 *4215:X *4216:C1 9.975 
*END

*D_NET *183 0.00221781
*CONN
*I *4539:A I *D sky130_fd_sc_hd__dlygate4sd3_1
*I *4217:X O *D sky130_fd_sc_hd__or2_1
*CAP
1 *4539:A 0.000559733
2 *4217:X 0.000559733
3 *4539:A *4216:A1 0.00046894
4 *4539:A *4220:C1 0.000535092
5 *4539:A *4370:D 5.02217e-05
6 *4539:A *4538:A 0
7 *4539:A *266:151 4.40899e-05
*RES
1 *4217:X *4539:A 17.595 
*END

*D_NET *184 0.00187755
*CONN
*I *4220:C1 I *D sky130_fd_sc_hd__o211a_1
*I *4219:X O *D sky130_fd_sc_hd__or2_1
*CAP
1 *4220:C1 0.000322841
2 *4219:X 0.000322841
3 *4220:C1 *4217:A 0.000246937
4 *4220:C1 *4219:A 9.48971e-05
5 *4220:C1 *259:213 7.07957e-05
6 *4220:C1 *468:14 0.000152305
7 *4220:B1 *4220:C1 9.50342e-06
8 *4537:A *4220:C1 0.000122337
9 *4539:A *4220:C1 0.000535092
10 *177:96 *4220:C1 0
11 *177:100 *4220:C1 0
*RES
1 *4219:X *4220:C1 16.53 
*END

*D_NET *185 0.000567137
*CONN
*I *4222:C1 I *D sky130_fd_sc_hd__o211a_1
*I *4221:X O *D sky130_fd_sc_hd__or2_1
*CAP
1 *4222:C1 0.000259425
2 *4221:X 0.000259425
3 *4222:C1 *4222:A1 0
4 *4220:B1 *4222:C1 0
5 *180:55 *4222:C1 4.82863e-05
*RES
1 *4221:X *4222:C1 11.325 
*END

*D_NET *186 0.000315252
*CONN
*I *4224:C1 I *D sky130_fd_sc_hd__o211a_1
*I *4223:X O *D sky130_fd_sc_hd__or2_1
*CAP
1 *4224:C1 0.000119473
2 *4223:X 0.000119473
3 *4224:C1 *4207:A1 0
4 *4224:C1 *4223:A 1.7386e-05
5 *177:10 *4224:C1 5.33874e-05
6 *180:46 *4224:C1 5.53249e-06
*RES
1 *4223:X *4224:C1 9.285 
*END

*D_NET *187 0.00116638
*CONN
*I *4226:C1 I *D sky130_fd_sc_hd__o211a_1
*I *4225:X O *D sky130_fd_sc_hd__or2_1
*CAP
1 *4226:C1 0.000199638
2 *4225:X 0.000199638
3 *4226:C1 *4471:A 0.000318091
4 *4226:C1 *441:6 8.8266e-05
5 *4226:A2 *4226:C1 0.000180373
6 *4482:A *4226:C1 0.000180373
*RES
1 *4225:X *4226:C1 9.515 
*END

*D_NET *188 0.00333417
*CONN
*I *4239:A I *D sky130_fd_sc_hd__and3_1
*I *4236:A I *D sky130_fd_sc_hd__and3_1
*I *4230:A I *D sky130_fd_sc_hd__and3_1
*I *4233:B I *D sky130_fd_sc_hd__and3b_1
*I *4227:X O *D sky130_fd_sc_hd__and3_1
*CAP
1 *4239:A 0.000246275
2 *4236:A 0.000203321
3 *4230:A 6.19756e-05
4 *4233:B 3.83094e-05
5 *4227:X 0.000341604
6 *188:32 0.000663546
7 *188:21 0.000329984
8 *188:10 0.000433972
9 *4230:A *4233:A_N 4.82919e-05
10 *4233:B *4233:C 7.00889e-06
11 *4236:A *4234:A 2.16917e-05
12 *4236:A *4238:B 0.000238137
13 *4239:A *4239:B 7.23602e-05
14 *4239:A *4239:C 4.82919e-05
15 *4239:A *4442:A 0
16 *4239:A *270:10 0
17 *4239:A *270:16 0
18 *188:10 *4375:CLK 5.30673e-05
19 *188:10 *4559:A 2.46089e-05
20 *188:21 *4230:C 0
21 *188:21 *4233:A_N 1.70935e-05
22 *188:21 *4559:A 3.686e-05
23 *188:32 *4140:A 0
24 *188:32 *4231:B1 0
25 *188:32 *4233:A_N 0.000152567
26 *188:32 *4234:B 5.16418e-05
27 *188:32 *4559:A 3.69334e-05
28 *4231:A3 *4230:A 0.000198945
29 *4231:A3 *4233:B 2.8585e-06
30 *4375:D *188:10 4.82319e-06
*RES
1 *4227:X *188:10 7.68 
2 *188:10 *4233:B 4.05 
3 *188:10 *188:21 1.125 
4 *188:21 *4230:A 5.43 
5 *188:21 *188:32 4.44 
6 *188:32 *4236:A 6.48 
7 *188:32 *4239:A 7.98 
*END

*D_NET *189 0.000609072
*CONN
*I *4230:B I *D sky130_fd_sc_hd__and3_1
*I *4228:X O *D sky130_fd_sc_hd__or2_1
*CAP
1 *4230:B 0.000131912
2 *4228:X 0.000131912
3 *4230:B *4230:C 0.000258651
4 *4230:B *4448:A 8.65961e-05
5 *4230:B *4559:A 0
*RES
1 *4228:X *4230:B 10.155 
*END

*D_NET *190 0.00112525
*CONN
*I *4230:C I *D sky130_fd_sc_hd__and3_1
*I *4229:Y O *D sky130_fd_sc_hd__nand2_1
*CAP
1 *4230:C 0.000300297
2 *4229:Y 0.000300297
3 *4230:C *4229:A 0.000115912
4 *4230:C *4448:A 7.70938e-05
5 *4230:B *4230:C 0.000258651
6 *4231:A3 *4230:C 2.09509e-05
7 *4374:D *4230:C 9.53428e-06
8 *177:46 *4230:C 1.91597e-05
9 *177:59 *4230:C 2.33578e-05
10 *188:21 *4230:C 0
*RES
1 *4229:Y *4230:C 13.41 
*END

*D_NET *191 0.000300811
*CONN
*I *4233:C I *D sky130_fd_sc_hd__and3b_1
*I *4231:X O *D sky130_fd_sc_hd__a31o_1
*CAP
1 *4233:C 0.000101667
2 *4231:X 0.000101667
3 *4233:C *488:56 0
4 *4231:A3 *4233:C 6.54766e-05
5 *4233:B *4233:C 7.00889e-06
6 *4375:D *4233:C 2.49909e-05
*RES
1 *4231:X *4233:C 5.3 
*END

*D_NET *192 0.00347914
*CONN
*I *4237:A2 I *D sky130_fd_sc_hd__a21o_1
*I *4235:B I *D sky130_fd_sc_hd__nand2_1
*I *4233:A_N I *D sky130_fd_sc_hd__and3b_1
*I *4234:B I *D sky130_fd_sc_hd__or2_1
*I *4238:C I *D sky130_fd_sc_hd__nand3_1
*I *4232:X O *D sky130_fd_sc_hd__and4_1
*CAP
1 *4237:A2 0.000106781
2 *4235:B 0
3 *4233:A_N 0.000213862
4 *4234:B 3.50459e-05
5 *4238:C 0.000179441
6 *4232:X 6.19087e-05
7 *192:57 0.000284998
8 *192:18 0.000276602
9 *192:16 0.000601257
10 *192:8 0.000565406
11 *4233:A_N *4140:A 0
12 *4238:C *4238:A 0.000120801
13 *4238:C *4238:B 1.61831e-05
14 *192:16 *4234:A 0.000109453
15 *192:16 *4236:B 0.000236355
16 *192:16 *4236:C 5.062e-06
17 *192:16 *4238:A 0.000235573
18 *192:18 *4238:A 0.000120655
19 *192:57 *4234:A 9.26907e-06
20 *192:57 *4236:C 2.67022e-05
21 *192:57 *380:10 4.18603e-06
22 *4230:A *4233:A_N 4.82919e-05
23 *4376:D *192:57 0
24 *188:21 *4233:A_N 1.70935e-05
25 *188:32 *4233:A_N 0.000152567
26 *188:32 *4234:B 5.16418e-05
*RES
1 *4232:X *192:8 4.47 
2 *192:8 *192:16 8.09 
3 *192:16 *192:18 1.14 
4 *192:18 *4238:C 4.735 
5 *192:18 *4234:B 6.215 
6 *192:16 *4233:A_N 9.725 
7 *192:8 *192:57 5.105 
8 *192:57 *4235:B 1.6 
9 *192:57 *4237:A2 3.46 
*END

*D_NET *193 0.000552878
*CONN
*I *4236:B I *D sky130_fd_sc_hd__and3_1
*I *4234:X O *D sky130_fd_sc_hd__or2_1
*CAP
1 *4236:B 0.000158261
2 *4234:X 0.000158261
3 *192:16 *4236:B 0.000236355
*RES
1 *4234:X *4236:B 5.375 
*END

*D_NET *194 0.00060157
*CONN
*I *4236:C I *D sky130_fd_sc_hd__and3_1
*I *4235:Y O *D sky130_fd_sc_hd__nand2_1
*CAP
1 *4236:C 0.000194092
2 *4235:Y 0.000194092
3 *4236:C *4234:A 0.000181622
4 *192:16 *4236:C 5.062e-06
5 *192:57 *4236:C 2.67022e-05
*RES
1 *4235:Y *4236:C 10.1475 
*END

*D_NET *195 0.000873243
*CONN
*I *4239:B I *D sky130_fd_sc_hd__and3_1
*I *4237:X O *D sky130_fd_sc_hd__a21o_1
*CAP
1 *4239:B 0.000348343
2 *4237:X 0.000348343
3 *4239:B *4237:A1 8.73389e-06
4 *4239:B *4237:B1 1.83847e-05
5 *4239:B *4441:A 4.82919e-05
6 *4239:B *4442:A 2.87867e-05
7 *4239:A *4239:B 7.23602e-05
*RES
1 *4237:X *4239:B 11.625 
*END

*D_NET *196 0.000818058
*CONN
*I *4442:A I *D sky130_fd_sc_hd__dlygate4sd3_1
*I *4238:Y O *D sky130_fd_sc_hd__nand3_1
*CAP
1 *4442:A 0.000369655
2 *4238:Y 0.000369655
3 *4442:A *4238:B 4.99619e-05
4 *4442:A *4239:C 0
5 *4442:A *4377:D 0
6 *4239:A *4442:A 0
7 *4239:B *4442:A 2.87867e-05
*RES
1 *4238:Y *4442:A 13.11 
*END

*D_NET *197 0.00028302
*CONN
*I *4241:B1 I *D sky130_fd_sc_hd__o211a_1
*I *4240:X O *D sky130_fd_sc_hd__or2_1
*CAP
1 *4241:B1 4.56282e-05
2 *4240:X 4.56282e-05
3 *4241:B1 *4240:A 2.8185e-05
4 *4241:B1 *4241:A2 3.95724e-05
5 *122:8 *4241:B1 0.000124007
*RES
1 *4240:X *4241:B1 4.7 
*END

*D_NET *198 0.00151467
*CONN
*I *4246:A2 I *D sky130_fd_sc_hd__o21ai_1
*I *4244:A_N I *D sky130_fd_sc_hd__and3b_1
*I *4242:X O *D sky130_fd_sc_hd__o31a_1
*CAP
1 *4246:A2 0.00010067
2 *4244:A_N 4.45816e-05
3 *4242:X 0.000139401
4 *198:6 0.000284653
5 *4244:A_N *4516:A 4.66108e-05
6 *4246:A2 *4245:B1 0
7 *4246:A2 *273:10 2.92496e-05
8 *4246:A2 *273:12 0.000159964
9 *198:6 *4242:A1 4.82919e-05
10 *198:6 *4244:B 0.00043044
11 *198:6 *4245:B1 2.54522e-05
12 *198:6 *4516:A 0.000190633
13 *4244:C *4244:A_N 1.47256e-05
*RES
1 *4242:X *198:6 6.19 
2 *198:6 *4244:A_N 2.395 
3 *198:6 *4246:A2 7.745 
*END

*D_NET *199 0.001898
*CONN
*I *4244:B I *D sky130_fd_sc_hd__and3b_1
*I *4243:X O *D sky130_fd_sc_hd__or4_1
*CAP
1 *4244:B 0.000397198
2 *4243:X 0.000397198
3 *4244:B *4242:A1 2.30292e-05
4 *4244:B *4242:A2 0.000124895
5 *4244:B *4242:A3 7.05863e-06
6 *4244:B *460:44 0.000110673
7 *4244:B *460:50 0.000322951
8 *4244:B *488:70 8.45551e-05
9 *198:6 *4244:B 0.00043044
*RES
1 *4243:X *4244:B 16.155 
*END

*D_NET *200 0.00738759
*CONN
*I *4248:A2 I *D sky130_fd_sc_hd__o21ai_1
*I *4249:A2 I *D sky130_fd_sc_hd__a21oi_1
*I *4250:A2 I *D sky130_fd_sc_hd__a21o_1
*I *4251:B I *D sky130_fd_sc_hd__and2_1
*I *4253:C I *D sky130_fd_sc_hd__and3_1
*I *4256:D I *D sky130_fd_sc_hd__and4_1
*I *4247:A I *D sky130_fd_sc_hd__nor2_1
*I *4245:X O *D sky130_fd_sc_hd__o311a_2
*CAP
1 *4248:A2 0.000242005
2 *4249:A2 7.95201e-05
3 *4250:A2 3.0415e-05
4 *4251:B 1.36534e-05
5 *4253:C 3.35419e-05
6 *4256:D 7.2383e-05
7 *4247:A 9.8874e-05
8 *4245:X 0.000149889
9 *200:37 0.000493243
10 *200:29 0.000480558
11 *200:27 0.000200589
12 *200:25 0.000350425
13 *200:23 0.000726725
14 *200:6 0.000553167
15 *4247:A *4247:B 4.82919e-05
16 *4248:A2 *4581:A 6.20088e-05
17 *4250:A2 *4105:B 0.0001249
18 *4250:A2 *280:12 8.49205e-05
19 *4251:B *4420:A 4.66108e-05
20 *4251:B *260:96 4.66108e-05
21 *4253:C *4256:B 7.32729e-05
22 *4256:D *4256:B 3.63661e-05
23 *200:6 *4594:A 3.00381e-05
24 *200:23 *4103:B 0.00016703
25 *200:23 *273:12 0.000152134
26 *200:25 *4249:B1 0
27 *200:25 *4581:A 4.61744e-05
28 *200:27 *510:20 0
29 *200:29 *4252:C 0
30 *200:29 *280:12 6.55328e-05
31 *200:37 *4255:A 0.000313846
32 *200:37 *4255:B 7.04021e-05
33 *200:37 *4256:B 1.68868e-05
34 *200:37 *4420:A 0
35 *4122:B1_N *4248:A2 3.54025e-05
36 *4248:B1 *4248:A2 8.8266e-05
37 *4253:B *4256:D 4.21973e-05
38 *4253:B *200:37 8.65961e-05
39 *4256:C *4256:D 8.65905e-05
40 *4382:D *200:37 0
41 *4470:A *200:37 6.74079e-05
42 *4595:A *4247:A 2.54431e-05
43 *4595:A *200:6 7.68745e-05
44 *108:12 *200:23 0
45 *134:24 *200:23 0.00032511
46 *134:24 *200:25 0.000423818
47 *134:24 *200:27 0.000148854
48 *134:24 *200:29 0.000197599
49 *134:24 *200:37 0.000534144
50 *134:40 *200:23 5.72829e-05
51 *140:66 *200:23 9.37731e-05
52 *140:72 *4247:A 0.000158965
53 *140:181 *200:23 2.92496e-05
*RES
1 *4245:X *200:6 4.12 
2 *200:6 *4247:A 3.79 
3 *200:6 *200:23 9.8 
4 *200:23 *200:25 4.95 
5 *200:25 *200:27 1.89 
6 *200:27 *200:29 2.4 
7 *200:29 *200:37 12.485 
8 *200:37 *4256:D 3.43 
9 *200:37 *4253:C 2.635 
10 *200:29 *4251:B 4.05 
11 *200:27 *4250:A2 4.74 
12 *200:25 *4249:A2 4.74 
13 *200:23 *4248:A2 6.81 
*END

*D_NET *201 0.00052827
*CONN
*I *4594:A I *D sky130_fd_sc_hd__dlygate4sd3_1
*I *4246:Y O *D sky130_fd_sc_hd__o21ai_1
*CAP
1 *4594:A 0.000131181
2 *4246:Y 0.000131181
3 *4594:A *4246:A1 5.83121e-06
4 *4594:A *4593:A 0.000162769
5 *4594:A *259:173 2.8185e-05
6 *4594:A *273:12 1.1561e-05
7 *4595:A *4594:A 2.75229e-05
8 *200:6 *4594:A 3.00381e-05
*RES
1 *4246:Y *4594:A 10.08 
*END

*D_NET *202 0.000613061
*CONN
*I *4249:B1 I *D sky130_fd_sc_hd__a21oi_1
*I *4248:Y O *D sky130_fd_sc_hd__o21ai_1
*CAP
1 *4249:B1 0.000267991
2 *4248:Y 0.000267991
3 *4249:B1 *4581:A 2.87867e-05
4 *4249:B1 *510:14 0
5 *4122:B1_N *4249:B1 4.82919e-05
6 *200:25 *4249:B1 0
*RES
1 *4248:Y *4249:B1 11.325 
*END

*D_NET *203 0.00104065
*CONN
*I *4252:C I *D sky130_fd_sc_hd__and3b_1
*I *4250:X O *D sky130_fd_sc_hd__a21o_1
*CAP
1 *4252:C 0.000275809
2 *4250:X 0.000275809
3 *4252:C *4252:A_N 0.000140063
4 *4252:C *4381:CLK 0
5 *4252:C *4420:A 0
6 *4252:C *204:10 9.23395e-05
7 *4252:C *280:12 0
8 *4382:D *4252:C 0.000256626
9 *200:29 *4252:C 0
*RES
1 *4250:X *4252:C 14.19 
*END

*D_NET *204 0.00180211
*CONN
*I *4254:A2 I *D sky130_fd_sc_hd__o21ai_1
*I *4252:A_N I *D sky130_fd_sc_hd__and3b_1
*I *4251:X O *D sky130_fd_sc_hd__and2_1
*CAP
1 *4254:A2 0
2 *4252:A_N 0.000146253
3 *4251:X 0.000316339
4 *204:10 0.000462592
5 *4252:A_N *4255:B 0
6 *204:10 *260:96 0.000347029
7 *4252:B *4252:A_N 0.000199627
8 *4252:B *204:10 2.78732e-05
9 *4252:C *4252:A_N 0.000140063
10 *4252:C *204:10 9.23395e-05
11 *140:18 *204:10 6.99988e-05
*RES
1 *4251:X *204:10 8.955 
2 *204:10 *4252:A_N 7.815 
3 *204:10 *4254:A2 3.6 
*END

*D_NET *205 0.00353076
*CONN
*I *4255:A I *D sky130_fd_sc_hd__nor2_1
*I *4257:A2 I *D sky130_fd_sc_hd__o21ai_1
*I *4253:X O *D sky130_fd_sc_hd__and3_1
*CAP
1 *4255:A 0.000257736
2 *4257:A2 0.000284313
3 *4253:X 7.12321e-05
4 *205:8 0.000613282
5 *4255:A *4256:B 2.75229e-05
6 *4257:A2 *4256:A 0.000268271
7 *4257:A2 *4257:A1 1.61831e-05
8 *4257:A2 *4420:A 0.000464499
9 *4257:A2 *260:12 0.000464499
10 *4257:A2 *281:10 0.000231564
11 *4257:A2 *281:23 0.000219692
12 *4253:B *4257:A2 9.51151e-07
13 *4253:B *205:8 3.40521e-05
14 *105:8 *4257:A2 4.9968e-05
15 *105:14 *4257:A2 0.000213147
16 *134:24 *4255:A 0
17 *134:24 *205:8 0
18 *200:37 *4255:A 0.000313846
*RES
1 *4253:X *205:8 4.5975 
2 *205:8 *4257:A2 14.8875 
3 *205:8 *4255:A 8.1825 
*END

*D_NET *206 0.000397976
*CONN
*I *4469:A I *D sky130_fd_sc_hd__dlygate4sd3_1
*I *4254:Y O *D sky130_fd_sc_hd__o21ai_1
*CAP
1 *4469:A 9.49387e-05
2 *4254:Y 9.49387e-05
3 *4469:A *4254:A1 4.82919e-05
4 *4469:A *4398:CLK 3.26889e-05
5 *4469:A *259:116 0.000127118
*RES
1 *4254:Y *4469:A 5.51 
*END

*D_NET *207 0.00562476
*CONN
*I *4260:A2 I *D sky130_fd_sc_hd__o21ai_1
*I *4265:D I *D sky130_fd_sc_hd__and4_1
*I *4262:C I *D sky130_fd_sc_hd__and3_1
*I *4259:B I *D sky130_fd_sc_hd__and2_1
*I *4258:A I *D sky130_fd_sc_hd__nor2_1
*I *4256:X O *D sky130_fd_sc_hd__and4_1
*CAP
1 *4260:A2 9.04789e-05
2 *4265:D 0.000308336
3 *4262:C 1.52563e-05
4 *4259:B 0.000110362
5 *4258:A 0
6 *4256:X 0.000734662
7 *207:36 0.000536509
8 *207:23 0.000598105
9 *207:19 0.000541352
10 *207:10 0.000910709
11 *4259:B *4259:A 6.68538e-05
12 *4259:B *4261:B 3.63717e-05
13 *4260:A2 *4259:A 9.66106e-05
14 *4260:A2 *4260:A1 3.00381e-05
15 *4260:A2 *4510:A 0.000239813
16 *4260:A2 *283:10 2.66852e-05
17 *4260:A2 *283:23 4.18603e-06
18 *4265:D *4263:A1 1.54318e-05
19 *4265:D *4495:A 7.00505e-05
20 *4265:D *213:8 2.96426e-05
21 *4265:D *283:34 0
22 *4265:D *376:6 0.000124895
23 *207:10 *4350:CLK 4.91189e-05
24 *207:19 *4350:CLK 7.04021e-05
25 *207:19 *4384:D 5.63405e-05
26 *207:19 *260:24 0
27 *207:19 *283:10 2.46089e-05
28 *207:23 *4259:A 0.00042453
29 *207:36 *4263:A1 6.28687e-05
30 *207:36 *4263:A2 7.23602e-05
31 *207:36 *4386:CLK 0
32 *207:36 *260:24 0
33 *207:36 *283:23 0
34 *4263:B1 *4265:D 0.000127932
35 *4263:B1 *207:36 7.89767e-05
36 *4269:B1 *4265:D 6.55406e-05
37 *4385:D *207:36 0
38 *4496:A *4262:C 5.73568e-06
*RES
1 *4256:X *207:10 12.33 
2 *207:10 *4258:A 3.6 
3 *207:10 *207:19 3.675 
4 *207:19 *207:23 5.9 
5 *207:23 *4259:B 3.355 
6 *207:23 *207:36 6.185 
7 *207:36 *4262:C 3.765 
8 *207:36 *4265:D 9.615 
9 *207:19 *4260:A2 6.645 
*END

*D_NET *208 0.000832488
*CONN
*I *4466:A I *D sky130_fd_sc_hd__dlygate4sd3_1
*I *4257:Y O *D sky130_fd_sc_hd__o21ai_1
*CAP
1 *4466:A 0.000356424
2 *4257:Y 0.000356424
3 *4466:A *4257:A1 0
4 *4466:A *4384:D 0
5 *4466:A *282:19 0
6 *4466:A *434:20 0.00011964
*RES
1 *4257:Y *4466:A 13.47 
*END

*D_NET *209 0.000903056
*CONN
*I *4263:A2 I *D sky130_fd_sc_hd__o21ai_1
*I *4261:A I *D sky130_fd_sc_hd__nor2_1
*I *4259:X O *D sky130_fd_sc_hd__and2_1
*CAP
1 *4263:A2 0.000204251
2 *4261:A 0.000106559
3 *4259:X 0
4 *209:4 0.00031081
5 *4261:A *4261:B 6.85293e-05
6 *4263:A2 *4259:A 1.17409e-05
7 *4263:A2 *4261:B 0.000112622
8 *4263:A2 *260:24 0
9 *4385:D *4261:A 1.61831e-05
10 *207:36 *4263:A2 7.23602e-05
*RES
1 *4259:X *209:4 1.6 
2 *209:4 *4261:A 3.715 
3 *209:4 *4263:A2 8.645 
*END

*D_NET *210 0.000803851
*CONN
*I *4510:A I *D sky130_fd_sc_hd__dlygate4sd3_1
*I *4260:Y O *D sky130_fd_sc_hd__o21ai_1
*CAP
1 *4510:A 0.000208339
2 *4260:Y 0.000208339
3 *4510:A *4259:A 5.90938e-05
4 *4260:A2 *4510:A 0.000239813
5 *140:108 *4510:A 8.8266e-05
*RES
1 *4260:Y *4510:A 7.46 
*END

*D_NET *211 0.00155092
*CONN
*I *4266:A2 I *D sky130_fd_sc_hd__o21ai_1
*I *4264:A I *D sky130_fd_sc_hd__nor2_1
*I *4262:X O *D sky130_fd_sc_hd__and3_1
*CAP
1 *4266:A2 0.000281688
2 *4264:A 0.000112558
3 *4262:X 0
4 *211:4 0.000394246
5 *4266:A2 *4262:B 0.000235573
6 *4266:A2 *4265:B 0
7 *4266:A2 *410:8 0.000163204
8 *4266:A2 *410:14 5.6361e-05
9 *4496:A *4264:A 8.40213e-05
10 *4496:A *4266:A2 0.000186393
11 *140:108 *4266:A2 3.68769e-05
*RES
1 *4262:X *211:4 1.6 
2 *211:4 *4264:A 3.355 
3 *211:4 *4266:A2 12.005 
*END

*D_NET *212 0.00151123
*CONN
*I *4495:A I *D sky130_fd_sc_hd__dlygate4sd3_1
*I *4263:Y O *D sky130_fd_sc_hd__o21ai_1
*CAP
1 *4495:A 0.000358956
2 *4263:Y 0.000358956
3 *4495:A *4263:A1 9.28013e-05
4 *4495:A *4461:A 0.000272984
5 *4495:A *283:23 4.35087e-05
6 *4495:A *283:34 3.60648e-05
7 *4263:B1 *4495:A 4.9253e-06
8 *4265:D *4495:A 7.00505e-05
9 *140:132 *4495:A 0.000272984
*RES
1 *4263:Y *4495:A 14.625 
*END

*D_NET *213 0.00464714
*CONN
*I *4274:D I *D sky130_fd_sc_hd__and4_1
*I *4271:C I *D sky130_fd_sc_hd__and3_1
*I *4268:B I *D sky130_fd_sc_hd__and2_1
*I *4269:A2 I *D sky130_fd_sc_hd__o21ai_1
*I *4267:A I *D sky130_fd_sc_hd__nor2_1
*I *4265:X O *D sky130_fd_sc_hd__and4_1
*CAP
1 *4274:D 0.000122651
2 *4271:C 4.7156e-05
3 *4268:B 0.000129875
4 *4269:A2 3.38648e-05
5 *4267:A 0.000358655
6 *4265:X 0
7 *213:49 0.000474127
8 *213:19 0.00025534
9 *213:8 0.000750353
10 *213:4 0.000604417
11 *4267:A *4267:B 0
12 *4267:A *4387:D 0
13 *4267:A *285:10 0
14 *4267:A *285:23 0
15 *4268:B *4269:A1 0.000239813
16 *4268:B *286:6 4.60584e-05
17 *4269:A2 *286:6 4.82919e-05
18 *4271:C *4272:A2 1.77285e-05
19 *4274:D *4274:C 0.000305914
20 *4274:D *4278:B1 0
21 *4274:D *391:25 0.000183731
22 *213:8 *376:6 3.00381e-05
23 *213:19 *285:23 0
24 *213:49 *4107:D_N 8.34348e-05
25 *213:49 *4120:D_N 0.000181376
26 *213:49 *4265:B 3.09233e-05
27 *213:49 *4274:C 0.000120881
28 *213:49 *275:10 0
29 *213:49 *275:12 0
30 *213:49 *286:25 8.68724e-05
31 *213:49 *286:31 0.000141606
32 *213:49 *376:6 6.52265e-05
33 *213:49 *391:25 3.09164e-05
34 *213:49 *419:12 0
35 *4263:B1 *4267:A 0
36 *4265:D *213:8 2.96426e-05
37 *4269:B1 *4267:A 0
38 *4269:B1 *4268:B 0.000164874
39 *4462:A *4267:A 6.33733e-05
*RES
1 *4265:X *213:4 1.6 
2 *213:4 *213:8 6.59 
3 *213:8 *4267:A 9.825 
4 *213:8 *213:19 1.38 
5 *213:19 *4269:A2 4.05 
6 *213:19 *4268:B 7.2 
7 *213:4 *213:49 9.875 
8 *213:49 *4271:C 4.11 
9 *213:49 *4274:D 7.275 
*END

*D_NET *214 0.000964816
*CONN
*I *4461:A I *D sky130_fd_sc_hd__dlygate4sd3_1
*I *4266:Y O *D sky130_fd_sc_hd__o21ai_1
*CAP
1 *4461:A 0.000220928
2 *4266:Y 0.000220928
3 *4461:A *4264:B 8.57024e-05
4 *4495:A *4461:A 0.000272984
5 *140:132 *4461:A 0.000164274
*RES
1 *4266:Y *4461:A 7.805 
*END

*D_NET *215 0.00150671
*CONN
*I *4272:A2 I *D sky130_fd_sc_hd__o21ai_1
*I *4270:A I *D sky130_fd_sc_hd__nor2_1
*I *4268:X O *D sky130_fd_sc_hd__and2_1
*CAP
1 *4272:A2 0.000281486
2 *4270:A 0.000169964
3 *4268:X 0.000192372
4 *215:10 0.000643822
5 *4272:A2 *4272:A1 4.99619e-05
6 *4272:A2 *217:10 8.5841e-05
7 *215:10 *4270:B 0
8 *215:10 *4274:C 0
9 *215:10 *4503:A 6.55328e-05
10 *215:10 *286:31 0
11 *215:10 *419:12 0
12 *4271:C *4272:A2 1.77285e-05
13 *4505:A *215:10 0
*RES
1 *4268:X *215:10 9.02 
2 *215:10 *4270:A 4.24 
3 *215:10 *4272:A2 6.535 
*END

*D_NET *216 0.000508806
*CONN
*I *4503:A I *D sky130_fd_sc_hd__dlygate4sd3_1
*I *4269:Y O *D sky130_fd_sc_hd__o21ai_1
*CAP
1 *4503:A 0.000216896
2 *4269:Y 0.000216896
3 *4503:A *4270:B 3.64998e-06
4 *4503:A *4388:D 0
5 *4503:A *419:12 5.83121e-06
6 *215:10 *4503:A 6.55328e-05
*RES
1 *4269:Y *4503:A 10.755 
*END

*D_NET *217 0.000929174
*CONN
*I *4275:A2 I *D sky130_fd_sc_hd__o21ai_1
*I *4273:A I *D sky130_fd_sc_hd__nor2_1
*I *4271:X O *D sky130_fd_sc_hd__and3_1
*CAP
1 *4275:A2 0.000167396
2 *4273:A 0
3 *4271:X 0.000197209
4 *217:10 0.000364605
5 *4275:A2 *4274:B 0
6 *4275:A2 *4274:C 0
7 *217:10 *4274:C 0
8 *217:10 *4389:D 3.68682e-05
9 *4272:A2 *217:10 8.5841e-05
10 *4275:B1 *4275:A2 5.05521e-05
11 *4477:A *217:10 2.67022e-05
*RES
1 *4271:X *217:10 6.81 
2 *217:10 *4273:A 3.6 
3 *217:10 *4275:A2 6.03 
*END

*D_NET *218 0.000374079
*CONN
*I *4476:A I *D sky130_fd_sc_hd__dlygate4sd3_1
*I *4272:Y O *D sky130_fd_sc_hd__o21ai_1
*CAP
1 *4476:A 0.000117486
2 *4272:Y 0.000117486
3 *4476:A *274:8 7.35729e-05
4 *4476:A *275:10 6.55328e-05
5 *4476:A *391:25 0
*RES
1 *4272:Y *4476:A 9.72 
*END

*D_NET *219 0.00371612
*CONN
*I *4276:A I *D sky130_fd_sc_hd__nor2_1
*I *4279:A2 I *D sky130_fd_sc_hd__a21o_1
*I *4277:A2 I *D sky130_fd_sc_hd__o21ai_1
*I *4280:C I *D sky130_fd_sc_hd__nand3_1
*I *4278:A2 I *D sky130_fd_sc_hd__a21oi_1
*I *4274:X O *D sky130_fd_sc_hd__and4_1
*CAP
1 *4276:A 0.000251197
2 *4279:A2 6.72652e-05
3 *4277:A2 0
4 *4280:C 0.000194573
5 *4278:A2 1.88809e-05
6 *4274:X 8.19609e-06
7 *219:39 0.000410743
8 *219:19 0.000267998
9 *219:17 0.000247931
10 *219:6 0.000109302
11 *4276:A *275:10 0
12 *4276:A *276:10 0.00016569
13 *4276:A *344:10 0.000141606
14 *4278:A2 *4430:A 0
15 *4279:A2 *4279:A1 8.49205e-05
16 *4280:C *4280:B 0.000499661
17 *219:6 *262:8 3.00381e-05
18 *219:17 *262:6 0.000157343
19 *219:17 *262:8 9.27326e-05
20 *219:19 *4280:B 9.50342e-06
21 *219:19 *344:14 0.00017354
22 *219:39 *275:10 0
23 *219:39 *344:10 2.14129e-05
24 *219:39 *344:12 8.69088e-05
25 *219:39 *344:14 7.30547e-05
26 *4275:B1 *4278:A2 5.4155e-06
27 *4275:B1 *219:6 3.00381e-05
28 *4275:B1 *219:17 6.07328e-05
29 *4275:B1 *219:19 6.10014e-05
30 *4455:A *4276:A 0
31 *4598:A *4276:A 2.84137e-05
32 *4598:A *219:17 0.000312176
33 *140:89 *4280:C 9.428e-05
34 *140:89 *219:19 1.1561e-05
*RES
1 *4274:X *219:6 2.05 
2 *219:6 *4278:A2 1.96 
3 *219:6 *219:17 5.9 
4 *219:17 *219:19 2.145 
5 *219:19 *4280:C 9.045 
6 *219:19 *4277:A2 3.6 
7 *219:17 *219:39 2.145 
8 *219:39 *4279:A2 4.74 
9 *219:39 *4276:A 9.21 
*END

*D_NET *220 0.000691783
*CONN
*I *4454:A I *D sky130_fd_sc_hd__dlygate4sd3_1
*I *4275:Y O *D sky130_fd_sc_hd__o21ai_1
*CAP
1 *4454:A 0.000252012
2 *4275:Y 0.000252012
3 *4454:A *4390:CLK 0
4 *4454:A *4390:D 0.000187759
5 *4454:A *369:12 0
*RES
1 *4275:Y *4454:A 11.76 
*END

*D_NET *221 0.000854795
*CONN
*I *4278:B1 I *D sky130_fd_sc_hd__a21oi_1
*I *4277:Y O *D sky130_fd_sc_hd__o21ai_1
*CAP
1 *4278:B1 0.000284375
2 *4277:Y 0.000284375
3 *4278:B1 *274:8 0.000124007
4 *4278:B1 *275:10 0.000134516
5 *4274:D *4278:B1 0
6 *140:81 *4278:B1 2.75229e-05
*RES
1 *4277:Y *4278:B1 11.355 
*END

*D_NET *222 0.0005184
*CONN
*I *4281:B I *D sky130_fd_sc_hd__and3_1
*I *4279:X O *D sky130_fd_sc_hd__a21o_1
*CAP
1 *4281:B 0.000199241
2 *4279:X 0.000199241
3 *4281:B *4279:B1 7.23602e-05
4 *4281:B *4280:A 0
5 *4281:B *262:73 4.75576e-05
6 *4281:B *344:14 0
7 *4598:A *4281:B 0
*RES
1 *4279:X *4281:B 10.56 
*END

*D_NET *223 0.000453116
*CONN
*I *4485:A I *D sky130_fd_sc_hd__dlygate4sd3_1
*I *4280:Y O *D sky130_fd_sc_hd__nand3_1
*CAP
1 *4485:A 9.87669e-05
2 *4280:Y 9.87669e-05
3 *4485:A *4280:A 0.000116158
4 *4486:A *4485:A 6.97118e-05
5 *140:72 *4485:A 6.97118e-05
*RES
1 *4280:Y *4485:A 9.72 
*END

*D_NET *224 0.000597069
*CONN
*I *4286:B I *D sky130_fd_sc_hd__nor2_1
*I *4285:X O *D sky130_fd_sc_hd__a2111o_1
*CAP
1 *4286:B 0.000129831
2 *4285:X 0.000129831
3 *4286:B *4285:C1 3.69837e-05
4 *4286:B *265:12 0.000137571
5 *4286:B *265:51 2.75145e-05
6 *4146:B *4286:B 5.13155e-05
7 *100:123 *4286:B 0
8 *100:127 *4286:B 0
9 *141:10 *4286:B 8.40213e-05
*RES
1 *4285:X *4286:B 10.08 
*END

*D_NET *225 0.0070843
*CONN
*I *4293:B I *D sky130_fd_sc_hd__and3b_1
*I *4298:A I *D sky130_fd_sc_hd__and2_1
*I *4296:B I *D sky130_fd_sc_hd__and3b_1
*I *4290:B I *D sky130_fd_sc_hd__and3b_1
*I *4286:Y O *D sky130_fd_sc_hd__nor2_1
*CAP
1 *4293:B 0.000219243
2 *4298:A 0.000591882
3 *4296:B 0
4 *4290:B 0.000592577
5 *4286:Y 0.000482395
6 *225:33 0.00114022
7 *225:12 0.00115236
8 *225:10 0.000713082
9 *4290:B *4290:A_N 0.0001249
10 *4290:B *4290:C 4.05674e-06
11 *4290:B *4402:CLK 0.000106148
12 *4290:B *230:14 2.89259e-05
13 *4290:B *265:18 2.49909e-05
14 *4293:B *4137:D_N 1.57815e-05
15 *4293:B *4293:A_N 6.95726e-05
16 *4298:A *4298:B 0.000316421
17 *4298:A *4402:CLK 7.22354e-05
18 *225:10 *4125:B 0.000218271
19 *225:10 *4285:C1 4.21621e-05
20 *225:10 *4293:C 0
21 *225:10 *4294:B 2.34423e-05
22 *225:10 *4298:B 0
23 *225:10 *230:14 2.72225e-05
24 *225:10 *265:12 0
25 *225:10 *362:47 9.37731e-05
26 *225:10 *372:21 0
27 *225:12 *230:14 7.96104e-06
28 *225:33 *4296:C 2.93818e-05
29 *225:33 *4297:B 0
30 *225:33 *4514:A 2.97004e-06
31 *574:DIODE *4298:A 0.000466558
32 *4138:A *225:10 0
33 *4401:D *4290:B 1.03423e-05
34 *4402:D *4298:A 3.54965e-05
35 *4458:A *225:10 9.51212e-05
36 *4507:A *225:10 0
37 *4513:A *4298:A 0.000329021
38 *135:8 *225:10 0
39 *141:10 *225:10 4.77757e-05
*RES
1 *4286:Y *225:10 12 
2 *225:10 *225:12 0.2325 
3 *225:12 *4290:B 11.0025 
4 *225:12 *225:33 4.53797 
5 *225:33 *4296:B 1.6 
6 *225:33 *4298:A 18.17 
7 *225:10 *4293:B 6.12 
*END

*D_NET *226 0.00454197
*CONN
*I *4337:B1 I *D sky130_fd_sc_hd__o221a_1
*I *4289:C I *D sky130_fd_sc_hd__and3_1
*I *4300:C I *D sky130_fd_sc_hd__or3_1
*I *4288:A2 I *D sky130_fd_sc_hd__a21o_1
*I *4287:X O *D sky130_fd_sc_hd__or2_1
*CAP
1 *4337:B1 0.000673939
2 *4289:C 0
3 *4300:C 0
4 *4288:A2 8.75423e-05
5 *4287:X 7.61619e-05
6 *226:32 0.000751872
7 *226:21 0.00026482
8 *226:6 0.000350591
9 *4288:A2 *4301:B 8.08439e-05
10 *4288:A2 *4511:A 0
11 *4337:B1 *4337:B2 8.00892e-06
12 *4337:B1 *4342:D 0.000139933
13 *4337:B1 *259:53 0.00011595
14 *4337:B1 *265:10 0.000165712
15 *4337:B1 *265:12 0.000180387
16 *4337:B1 *362:47 0
17 *4337:B1 *362:70 8.40213e-05
18 *4337:B1 *367:14 0.000141467
19 *4337:B1 *367:22 7.2491e-05
20 *226:6 *4511:A 0.000163199
21 *226:21 *4300:A 6.90876e-05
22 *226:21 *4301:B 0.000278117
23 *226:21 *4511:A 4.82919e-05
24 *226:21 *367:14 0
25 *226:21 *367:22 1.80164e-05
26 *226:21 *427:12 0.000161204
27 *226:32 *367:22 0.000102919
28 *4147:B1 *4337:B1 0.00013521
29 *4337:A2 *4337:B1 0.00012695
30 *4337:C1 *4337:B1 0.000198559
31 *4507:A *4337:B1 4.66742e-05
*RES
1 *4287:X *226:6 3.085 
2 *226:6 *4288:A2 7.49 
3 *226:6 *226:21 5.205 
4 *226:21 *4300:C 1.6 
5 *226:21 *226:32 1.725 
6 *226:32 *4289:C 1.6 
7 *226:32 *4337:B1 20.99 
*END

*D_NET *227 0.000546165
*CONN
*I *4498:A I *D sky130_fd_sc_hd__dlygate4sd3_1
*I *4288:X O *D sky130_fd_sc_hd__a21o_1
*CAP
1 *4498:A 0.000239395
2 *4288:X 0.000239395
3 *4498:A *4301:B 6.73751e-05
4 *4498:A *4400:D 0
5 *4499:A *4498:A 0
*RES
1 *4288:X *4498:A 11.415 
*END

*D_NET *228 0.00325704
*CONN
*I *4290:A_N I *D sky130_fd_sc_hd__and3b_1
*I *4292:B I *D sky130_fd_sc_hd__and2_1
*I *4295:C I *D sky130_fd_sc_hd__and3_1
*I *4291:B I *D sky130_fd_sc_hd__or2_1
*I *4289:X O *D sky130_fd_sc_hd__and3_1
*CAP
1 *4290:A_N 4.52477e-05
2 *4292:B 0
3 *4295:C 0.000253582
4 *4291:B 0
5 *4289:X 0.000236422
6 *228:21 0.000292488
7 *228:14 0.000603259
8 *228:8 0.000846024
9 *4295:C *4291:A 4.14502e-05
10 *4295:C *4295:B 4.19797e-05
11 *4295:C *4514:A 4.43871e-06
12 *4295:C *232:14 0.000127306
13 *4295:C *431:8 4.66108e-05
14 *228:8 *4497:A 6.55328e-05
15 *228:8 *265:12 0
16 *228:8 *265:18 0
17 *228:14 *4291:A 8.77498e-05
18 *228:14 *4293:C 0.000117373
19 *228:21 *4291:A 0.000123955
20 *4132:A3 *228:8 5.53249e-06
21 *4290:B *4290:A_N 0.0001249
22 *4401:D *228:8 0
23 *4401:D *228:14 0
24 *4499:A *228:8 0.000103423
25 *100:127 *228:8 0
26 *130:68 *228:8 8.97642e-05
*RES
1 *4289:X *228:8 8.805 
2 *228:8 *228:14 11.405 
3 *228:14 *4291:B 1.6 
4 *228:14 *228:21 1.14 
5 *228:21 *4295:C 10.52 
6 *228:21 *4292:B 1.6 
7 *228:8 *4290:A_N 4.74 
*END

*D_NET *229 0.00105528
*CONN
*I *4293:C I *D sky130_fd_sc_hd__and3b_1
*I *4291:X O *D sky130_fd_sc_hd__or2_1
*CAP
1 *4293:C 0.00034912
2 *4291:X 0.00034912
3 *4293:C *4125:B 0
4 *4293:C *230:14 0
5 *4293:C *265:12 3.09233e-05
6 *4293:C *265:18 0.000183738
7 *4401:D *4293:C 2.50049e-05
8 *225:10 *4293:C 0
9 *228:14 *4293:C 0.000117373
*RES
1 *4291:X *4293:C 12.96 
*END

*D_NET *230 0.00336304
*CONN
*I *4294:B I *D sky130_fd_sc_hd__or2_1
*I *4293:A_N I *D sky130_fd_sc_hd__and3b_1
*I *4292:X O *D sky130_fd_sc_hd__and2_1
*CAP
1 *4294:B 0.00076017
2 *4293:A_N 6.4282e-05
3 *4292:X 0.000316826
4 *230:14 0.00114128
5 *4293:A_N *4125:B 0.000121817
6 *4293:A_N *4137:D_N 3.04704e-05
7 *4294:B *4125:A 8.03844e-05
8 *4294:B *4125:B 8.52883e-05
9 *4294:B *4137:A 4.77719e-05
10 *4294:B *4137:B 2.26018e-05
11 *4294:B *4294:A 0.000172805
12 *4294:B *310:14 3.73067e-05
13 *4294:B *372:6 9.96033e-05
14 *4294:B *422:6 1.34594e-05
15 *230:14 *4291:A 8.69583e-05
16 *230:14 *232:14 0
17 *230:14 *310:14 0
18 *527:DIODE *4294:B 0.000124895
19 *4290:B *230:14 2.89259e-05
20 *4293:B *4293:A_N 6.95726e-05
21 *4293:C *230:14 0
22 *225:10 *4294:B 2.34423e-05
23 *225:10 *230:14 2.72225e-05
24 *225:12 *230:14 7.96104e-06
*RES
1 *4292:X *230:14 8.37 
2 *230:14 *4293:A_N 5.43 
3 *230:14 *4294:B 14.46 
*END

*D_NET *231 0.00189217
*CONN
*I *4296:C I *D sky130_fd_sc_hd__and3b_1
*I *4294:X O *D sky130_fd_sc_hd__or2_1
*CAP
1 *4296:C 0.000649778
2 *4294:X 0.000649778
3 *4296:C *4137:B 0.000376187
4 *4296:C *4294:A 8.33824e-05
5 *4296:C *4295:A 0
6 *4296:C *4402:CLK 8.65905e-05
7 *4296:C *4514:A 0
8 *4402:D *4296:C 1.70733e-05
9 *225:33 *4296:C 2.93818e-05
*RES
1 *4294:X *4296:C 16.305 
*END

*D_NET *232 0.00209942
*CONN
*I *4297:B I *D sky130_fd_sc_hd__xor2_1
*I *4296:A_N I *D sky130_fd_sc_hd__and3b_1
*I *4295:X O *D sky130_fd_sc_hd__and3_1
*CAP
1 *4297:B 0.000343393
2 *4296:A_N 0
3 *4295:X 0.000361357
4 *232:14 0.000704751
5 *4297:B *4125:A 0
6 *4297:B *4139:B2 5.39961e-05
7 *4297:B *4514:A 3.09164e-05
8 *4297:B *310:14 0.000111149
9 *4297:B *372:21 9.17776e-05
10 *232:14 *4514:A 8.7177e-05
11 *527:DIODE *4297:B 0
12 *528:DIODE *4297:B 1.56428e-05
13 *4295:C *232:14 0.000127306
14 *100:135 *4297:B 1.19928e-05
15 *135:8 *4297:B 0.000159957
16 *225:33 *4297:B 0
17 *230:14 *232:14 0
*RES
1 *4295:X *232:14 9.225 
2 *232:14 *4296:A_N 3.6 
3 *232:14 *4297:B 9.975 
*END

*D_NET *233 0.00184589
*CONN
*I *4298:B I *D sky130_fd_sc_hd__and2_1
*I *4297:X O *D sky130_fd_sc_hd__xor2_1
*CAP
1 *4298:B 0.00052086
2 *4297:X 0.00052086
3 *4298:B *4139:A1 8.40269e-05
4 *4298:B *4139:B2 4.82863e-05
5 *4298:B *367:6 8.40269e-05
6 *4298:A *4298:B 0.000316421
7 *4607:A *4298:B 0.000159134
8 *135:8 *4298:B 0.000112279
9 *225:10 *4298:B 0
*RES
1 *4297:X *4298:B 17.43 
*END

*D_NET *234 0.00664109
*CONN
*I *4301:A_N I *D sky130_fd_sc_hd__and3b_1
*I *4303:A2 I *D sky130_fd_sc_hd__a21oi_1
*I *4304:A2 I *D sky130_fd_sc_hd__a21o_1
*I *4302:A2 I *D sky130_fd_sc_hd__o21ai_1
*I *4310:A2 I *D sky130_fd_sc_hd__a31o_1
*I *4311:C I *D sky130_fd_sc_hd__and4_1
*I *4306:A I *D sky130_fd_sc_hd__and2_1
*I *4299:X O *D sky130_fd_sc_hd__o31a_2
*CAP
1 *4301:A_N 4.56283e-05
2 *4303:A2 0
3 *4304:A2 0.000531536
4 *4302:A2 0
5 *4310:A2 0
6 *4311:C 0
7 *4306:A 4.70438e-05
8 *4299:X 0.000129606
9 *234:64 0.000851328
10 *234:53 0.000427561
11 *234:28 8.6094e-05
12 *234:26 0.000553952
13 *234:10 0.000678476
14 *234:8 0.000231041
15 *4301:A_N *4127:C 0.000160635
16 *4301:A_N *4301:B 2.05056e-05
17 *4304:A2 *4303:B1 4.18603e-06
18 *4304:A2 *4304:A1 4.99619e-05
19 *4304:A2 *4406:D 4.99619e-05
20 *4304:A2 *4473:A 6.59822e-05
21 *4306:A *4306:B 8.1512e-05
22 *4306:A *4311:D 1.35397e-05
23 *4306:A *238:16 1.60203e-05
24 *234:8 *4127:C 0.000280466
25 *234:8 *4303:B1 0
26 *234:8 *4511:A 0
27 *234:10 *4127:C 2.92496e-05
28 *234:10 *4303:B1 0
29 *234:10 *264:14 0
30 *234:26 *4127:D_N 4.72472e-05
31 *234:26 *4310:B1 5.4155e-06
32 *234:26 *4405:D 2.47313e-05
33 *234:26 *264:14 0
34 *234:26 *353:10 8.53113e-06
35 *234:26 *388:8 9.58651e-05
36 *234:26 *407:12 4.82863e-05
37 *234:26 *407:14 0.000158072
38 *234:26 *446:8 0.00038879
39 *234:28 *4311:B 0.000163199
40 *234:28 *238:14 3.66286e-05
41 *234:28 *238:16 0.000241483
42 *234:28 *353:16 8.65961e-05
43 *234:53 *4301:B 0.000161529
44 *234:64 *4301:B 0.000120655
45 *234:64 *4302:A1 3.67779e-05
46 *234:64 *4303:B1 0.000173353
47 *234:64 *4515:A 4.91189e-05
48 *4302:B1 *4301:A_N 4.66108e-05
49 *4404:D *234:8 9.30717e-05
50 *144:60 *4306:A 0.000174602
51 *144:60 *234:26 2.33169e-05
52 *144:60 *234:28 1.60203e-05
53 *144:95 *4301:A_N 8.69098e-05
*RES
1 *4299:X *234:8 7.02 
2 *234:8 *234:10 0.87 
3 *234:10 *234:26 15.465 
4 *234:26 *234:28 2.52 
5 *234:28 *4306:A 3.805 
6 *234:28 *4311:C 1.6 
7 *234:26 *4310:A2 1.6 
8 *234:10 *234:53 3.485 
9 *234:53 *4302:A2 1.6 
10 *234:53 *234:64 8.855 
11 *234:64 *4304:A2 12.015 
12 *234:64 *4303:A2 3.6 
13 *234:8 *4301:A_N 5.43 
*END

*D_NET *235 0.00232739
*CONN
*I *4301:B I *D sky130_fd_sc_hd__and3b_1
*I *4300:X O *D sky130_fd_sc_hd__or3_1
*CAP
1 *4301:B 0.000766066
2 *4300:X 0.000766066
3 *4301:B *4127:C 1.16578e-05
4 *4301:B *4303:B1 2.36616e-05
5 *4288:A2 *4301:B 8.08439e-05
6 *4301:A_N *4301:B 2.05056e-05
7 *4302:B1 *4301:B 3.09179e-05
8 *4498:A *4301:B 6.73751e-05
9 *226:21 *4301:B 0.000278117
10 *234:53 *4301:B 0.000161529
11 *234:64 *4301:B 0.000120655
*RES
1 *4300:X *4301:B 20.325 
*END

*D_NET *236 0.00133577
*CONN
*I *4303:B1 I *D sky130_fd_sc_hd__a21oi_1
*I *4302:Y O *D sky130_fd_sc_hd__o21ai_1
*CAP
1 *4303:B1 0.000341701
2 *4302:Y 0.000341701
3 *4303:B1 *4302:A1 0.000136877
4 *4303:B1 *4406:CLK 0
5 *4303:B1 *264:14 0
6 *4301:B *4303:B1 2.36616e-05
7 *4302:B1 *4303:B1 1.16578e-05
8 *4304:A2 *4303:B1 4.18603e-06
9 *4404:D *4303:B1 4.18603e-06
10 *4517:A *4303:B1 0.000298442
11 *234:8 *4303:B1 0
12 *234:10 *4303:B1 0
13 *234:64 *4303:B1 0.000173353
*RES
1 *4302:Y *4303:B1 14.985 
*END

*D_NET *237 0.00120682
*CONN
*I *4473:A I *D sky130_fd_sc_hd__dlygate4sd3_1
*I *4304:X O *D sky130_fd_sc_hd__a21o_1
*CAP
1 *4473:A 0.000364153
2 *4304:X 0.000364153
3 *4473:A *4304:A1 0.000134148
4 *4473:A *4406:CLK 0
5 *4473:A *446:10 0.000119285
6 *4304:A2 *4473:A 6.59822e-05
7 *4309:C1 *4473:A 0.000122325
8 *4474:A *4473:A 3.67779e-05
*RES
1 *4304:X *4473:A 13.485 
*END

*D_NET *238 0.00247583
*CONN
*I *4310:A3 I *D sky130_fd_sc_hd__a31o_1
*I *4311:D I *D sky130_fd_sc_hd__and4_1
*I *4306:B I *D sky130_fd_sc_hd__and2_1
*I *4305:X O *D sky130_fd_sc_hd__and2_1
*CAP
1 *4310:A3 0
2 *4311:D 9.48747e-06
3 *4306:B 4.10214e-05
4 *4305:X 0.000311
5 *238:16 8.30056e-05
6 *238:14 0.000343496
7 *4306:B *4128:B 0.000203178
8 *238:14 *4127:D_N 0.00019948
9 *238:14 *4310:B1 4.99619e-05
10 *238:14 *4491:A 0
11 *238:14 *353:16 2.05056e-05
12 *238:14 *388:23 3.77112e-05
13 *238:14 *407:12 4.94404e-05
14 *238:14 *407:14 0.000158066
15 *238:16 *4128:B 0.000164874
16 *238:16 *407:14 0.000114912
17 *4131:A *238:14 2.66935e-05
18 *4306:A *4306:B 8.1512e-05
19 *4306:A *4311:D 1.35397e-05
20 *4306:A *238:16 1.60203e-05
21 *130:10 *238:14 0.000198945
22 *144:24 *238:14 0
23 *144:60 *4306:B 6.50552e-05
24 *144:60 *238:14 9.80943e-06
25 *234:28 *238:14 3.66286e-05
26 *234:28 *238:16 0.000241483
*RES
1 *4305:X *238:14 12.335 
2 *238:14 *238:16 2.52 
3 *238:16 *4306:B 3.79 
4 *238:16 *4311:D 1.96 
5 *238:14 *4310:A3 1.6 
*END

*D_NET *239 0.00253073
*CONN
*I *4308:B I *D sky130_fd_sc_hd__nand2_1
*I *4307:A_N I *D sky130_fd_sc_hd__and3b_1
*I *4309:A2 I *D sky130_fd_sc_hd__o211a_1
*I *4306:X O *D sky130_fd_sc_hd__and2_1
*CAP
1 *4308:B 0
2 *4307:A_N 2.62709e-05
3 *4309:A2 3.87235e-05
4 *4306:X 0.000267504
5 *239:20 0.00034704
6 *239:12 0.00054955
7 *4307:A_N *264:41 1.56428e-05
8 *4309:A2 *4309:B1 0.000164679
9 *4309:A2 *353:29 0.000163019
10 *239:12 *4308:A 5.53249e-06
11 *239:12 *4317:A2 1.08758e-05
12 *239:12 *4408:CLK 0.000293733
13 *239:12 *4591:A 1.17409e-05
14 *239:12 *4606:A 0
15 *239:12 *242:14 3.52139e-06
16 *239:20 *4318:B 1.37328e-05
17 *239:20 *4407:D 1.43717e-05
18 *239:20 *4408:CLK 7.22354e-05
19 *239:20 *4606:A 0.000202927
20 *239:20 *264:41 0.000226804
21 *4592:A *239:12 6.55328e-05
22 *144:60 *239:12 3.72916e-05
*RES
1 *4306:X *239:12 10.76 
2 *239:12 *239:20 7.14 
3 *239:20 *4309:A2 7.49 
4 *239:20 *4307:A_N 2.05 
5 *239:12 *4308:B 1.6 
*END

*D_NET *240 0.000935878
*CONN
*I *4606:A I *D sky130_fd_sc_hd__dlygate4sd3_1
*I *4308:Y O *D sky130_fd_sc_hd__nand2_1
*CAP
1 *4606:A 0.000354198
2 *4308:Y 0.000354198
3 *4606:A *4308:A 0
4 *4606:A *4407:D 2.45547e-05
5 *4606:A *353:29 0
6 *4592:A *4606:A 0
7 *239:12 *4606:A 0
8 *239:20 *4606:A 0.000202927
*RES
1 *4308:Y *4606:A 12.375 
*END

*D_NET *241 0.00115583
*CONN
*I *4491:A I *D sky130_fd_sc_hd__dlygate4sd3_1
*I *4310:X O *D sky130_fd_sc_hd__a31o_1
*CAP
1 *4491:A 0.000416444
2 *4310:X 0.000416444
3 *4491:A *4127:D_N 0
4 *4491:A *4128:B 8.8266e-05
5 *4491:A *4408:D 0
6 *4491:A *407:14 4.99619e-05
7 *4131:D *4491:A 0.00018471
8 *238:14 *4491:A 0
*RES
1 *4310:X *4491:A 13.8 
*END

*D_NET *242 0.00478628
*CONN
*I *4316:C I *D sky130_fd_sc_hd__and3_1
*I *4313:B I *D sky130_fd_sc_hd__and2_1
*I *4314:A2 I *D sky130_fd_sc_hd__o21ai_1
*I *4319:D I *D sky130_fd_sc_hd__and4_1
*I *4312:A_N I *D sky130_fd_sc_hd__and3b_1
*I *4311:X O *D sky130_fd_sc_hd__and4_1
*CAP
1 *4316:C 0
2 *4313:B 4.35283e-05
3 *4314:A2 0.000103572
4 *4319:D 1.4017e-05
5 *4312:A_N 0
6 *4311:X 0.000509108
7 *242:48 0.000636122
8 *242:29 0.000539129
9 *242:27 0.00010986
10 *242:14 0.000582877
11 *4313:B *4409:CLK 7.23602e-05
12 *4313:B *243:10 5.53249e-06
13 *4319:D *4316:B 1.4389e-05
14 *4319:D *4319:B 4.82863e-05
15 *242:14 *4128:B 0.0001249
16 *242:14 *4317:A1 8.69098e-05
17 *242:14 *4318:A 9.56774e-05
18 *242:14 *4591:A 0.000198945
19 *242:14 *519:19 0.000116158
20 *242:27 *4318:A 8.83878e-05
21 *242:27 *4319:B 6.27844e-05
22 *242:27 *519:23 0.000124895
23 *242:29 *4316:B 1.9415e-05
24 *242:29 *4318:A 2.96426e-05
25 *242:29 *4319:B 0.000153974
26 *242:48 *4129:D 1.89685e-05
27 *242:48 *4320:A2 6.28843e-05
28 *242:48 *4410:CLK 1.34503e-05
29 *242:48 *4587:A 0
30 *242:48 *247:8 3.09164e-05
31 *242:48 *516:14 0.000296306
32 *242:48 *516:34 0.000138615
33 *242:48 *516:45 4.39734e-05
34 *242:48 *519:19 0
35 *4314:B1 *4313:B 0
36 *4334:A *242:14 2.42236e-05
37 *4589:A *4314:A2 0.000163199
38 *4589:A *242:48 0.000132647
39 *144:60 *242:14 7.71027e-05
40 *239:12 *242:14 3.52139e-06
*RES
1 *4311:X *242:14 13.4 
2 *242:14 *4312:A_N 1.6 
3 *242:14 *242:27 2.715 
4 *242:27 *242:29 1.425 
5 *242:29 *4319:D 2.05 
6 *242:29 *242:48 13.66 
7 *242:48 *4314:A2 3.085 
8 *242:48 *4313:B 6.47 
9 *242:27 *4316:C 1.6 
*END

*D_NET *243 0.00320041
*CONN
*I *4317:A2 I *D sky130_fd_sc_hd__o21ai_1
*I *4315:A I *D sky130_fd_sc_hd__nor2_1
*I *4313:X O *D sky130_fd_sc_hd__and2_1
*CAP
1 *4317:A2 0.0007482
2 *4315:A 0.000273535
3 *4313:X 7.74138e-05
4 *243:10 0.00109915
5 *4315:A *4315:B 0.000260225
6 *4317:A2 *4315:B 0.000201508
7 *4317:A2 *4317:A1 0.000186662
8 *4317:A2 *4320:A1 0.000182389
9 *4317:A2 *4320:A2 8.4546e-05
10 *4317:A2 *4591:A 1.47347e-05
11 *243:10 *4409:CLK 8.08153e-06
12 *243:10 *261:46 4.75576e-05
13 *4313:B *243:10 5.53249e-06
14 *4314:B1 *243:10 0
15 *144:60 *4317:A2 0
16 *239:12 *4317:A2 1.08758e-05
*RES
1 *4313:X *243:10 6.98 
2 *243:10 *4315:A 9.5 
3 *243:10 *4317:A2 13.57 
*END

*D_NET *244 0.00151059
*CONN
*I *4588:A I *D sky130_fd_sc_hd__dlygate4sd3_1
*I *4314:Y O *D sky130_fd_sc_hd__o21ai_1
*CAP
1 *4588:A 0.000449411
2 *4314:Y 0.000449411
3 *4588:A *4320:A1 8.53113e-06
4 *4588:A *4410:CLK 0.000316421
5 *4588:A *261:46 0.000197269
6 *4588:A *516:14 3.86607e-05
7 *4588:A *516:34 2.42236e-05
8 *4589:A *4588:A 2.66586e-05
*RES
1 *4314:Y *4588:A 13.86 
*END

*D_NET *245 0.00304737
*CONN
*I *4318:A I *D sky130_fd_sc_hd__nor2_1
*I *4320:A2 I *D sky130_fd_sc_hd__o21ai_1
*I *4316:X O *D sky130_fd_sc_hd__and3_1
*CAP
1 *4318:A 0.000549032
2 *4320:A2 0.000282383
3 *4316:X 0
4 *245:4 0.000831416
5 *4318:A *4316:B 8.65961e-05
6 *4318:A *4318:B 4.99619e-05
7 *4318:A *4408:CLK 0
8 *4318:A *4587:A 0
9 *4318:A *4591:A 0.000240901
10 *4320:A2 *4320:A1 0.000158681
11 *4320:A2 *4524:A 0.000353831
12 *4320:A2 *519:19 0
13 *4317:A2 *4320:A2 8.4546e-05
14 *4334:A *4318:A 8.53113e-06
15 *144:148 *4320:A2 0.000124895
16 *242:14 *4318:A 9.56774e-05
17 *242:27 *4318:A 8.83878e-05
18 *242:29 *4318:A 2.96426e-05
19 *242:48 *4320:A2 6.28843e-05
*RES
1 *4316:X *245:4 1.6 
2 *245:4 *4320:A2 12.605 
3 *245:4 *4318:A 15.785 
*END

*D_NET *246 0.0015337
*CONN
*I *4591:A I *D sky130_fd_sc_hd__dlygate4sd3_1
*I *4317:Y O *D sky130_fd_sc_hd__o21ai_1
*CAP
1 *4591:A 0.000348626
2 *4317:Y 0.000348626
3 *4591:A *4317:A1 0.000123225
4 *4591:A *4318:B 2.30292e-05
5 *4591:A *4408:CLK 0.000106037
6 *4591:A *4590:A 0.000117832
7 *4317:A2 *4591:A 1.47347e-05
8 *4318:A *4591:A 0.000240901
9 *239:12 *4591:A 1.17409e-05
10 *242:14 *4591:A 0.000198945
*RES
1 *4317:Y *4591:A 16.335 
*END

*D_NET *247 0.00579656
*CONN
*I *4327:D I *D sky130_fd_sc_hd__and4_2
*I *4325:C I *D sky130_fd_sc_hd__and3_1
*I *4324:A2 I *D sky130_fd_sc_hd__a21o_1
*I *4323:A2 I *D sky130_fd_sc_hd__a21oi_1
*I *4322:A2 I *D sky130_fd_sc_hd__o21ai_1
*I *4321:A I *D sky130_fd_sc_hd__nor2_1
*I *4319:X O *D sky130_fd_sc_hd__and4_1
*CAP
1 *4327:D 0.000282058
2 *4325:C 0.000135945
3 *4324:A2 0.00015784
4 *4323:A2 0
5 *4322:A2 0.00040352
6 *4321:A 7.60321e-05
7 *4319:X 8.35202e-05
8 *247:60 0.000590539
9 *247:29 0.000423074
10 *247:25 0.000313313
11 *247:12 0.000694504
12 *247:8 0.000738608
13 *4322:A2 *4322:A1 8.40763e-05
14 *4322:A2 *458:46 7.67415e-06
15 *4324:A2 *4324:B1 1.16578e-05
16 *4324:A2 *4326:C 4.05358e-05
17 *4324:A2 *4413:CLK 1.46828e-05
18 *4324:A2 *261:36 5.05437e-05
19 *4324:A2 *261:40 0.000107634
20 *4325:C *4325:A 0.000111577
21 *4325:C *4325:B 2.20223e-05
22 *4325:C *251:12 0.000161837
23 *4327:D *4129:A 0
24 *4327:D *4324:B1 0
25 *4327:D *4327:B 7.26588e-05
26 *4327:D *4335:A3 0
27 *4327:D *4500:A 0.000184307
28 *4327:D *252:6 7.00889e-06
29 *4327:D *252:62 5.8825e-05
30 *247:8 *4129:D 2.97204e-05
31 *247:8 *519:19 0
32 *247:12 *4129:A 2.75145e-05
33 *247:12 *4129:C 1.34594e-05
34 *247:12 *4129:D 4.82863e-05
35 *247:12 *4321:B 7.35729e-05
36 *247:25 *261:40 0.000248261
37 *247:29 *458:46 4.66108e-05
38 *247:60 *4128:A 0
39 *247:60 *4129:A 0
40 *247:60 *4129:B 7.23533e-05
41 *247:60 *4129:C 0
42 *247:60 *4129:D 7.21296e-06
43 *247:60 *4500:A 3.25831e-05
44 *247:60 *458:20 5.07037e-05
45 *4322:B1 *4322:A2 0.00016569
46 *4322:B1 *247:12 2.86265e-06
47 *4501:A *4322:A2 3.26889e-05
48 *4501:A *247:29 1.08758e-05
49 *4525:A *4321:A 1.56428e-05
50 *4525:A *247:12 3.64998e-06
51 *4529:A *4322:A2 4.99619e-05
52 *144:140 *4324:A2 0
53 *144:140 *247:25 0
54 *144:142 *247:25 0
55 *144:148 *247:25 0
56 *242:48 *247:8 3.09164e-05
*RES
1 *4319:X *247:8 4.98 
2 *247:8 *247:12 7.625 
3 *247:12 *4321:A 2.665 
4 *247:12 *247:25 4.91 
5 *247:25 *247:29 2.45 
6 *247:29 *4322:A2 7.405 
7 *247:29 *4323:A2 1.6 
8 *247:25 *4324:A2 6.84 
9 *247:8 *247:60 3.165 
10 *247:60 *4325:C 6.69 
11 *247:60 *4327:D 9.33 
*END

*D_NET *248 0.00146356
*CONN
*I *4524:A I *D sky130_fd_sc_hd__dlygate4sd3_1
*I *4320:Y O *D sky130_fd_sc_hd__o21ai_1
*CAP
1 *4524:A 0.000396484
2 *4320:Y 0.000396484
3 *4524:A *4129:C 0.000130714
4 *4524:A *4320:A1 0.000163012
5 *4320:A2 *4524:A 0.000353831
6 *144:148 *4524:A 2.30292e-05
*RES
1 *4320:Y *4524:A 14.175 
*END

*D_NET *249 0.00067058
*CONN
*I *4323:B1 I *D sky130_fd_sc_hd__a21oi_1
*I *4322:Y O *D sky130_fd_sc_hd__o21ai_1
*CAP
1 *4323:B1 0.000157092
2 *4322:Y 0.000157092
3 *4323:B1 *4322:A1 0.000356395
*RES
1 *4322:Y *4323:B1 6.41 
*END

*D_NET *250 0.000136357
*CONN
*I *4326:C I *D sky130_fd_sc_hd__and3b_1
*I *4324:X O *D sky130_fd_sc_hd__a21o_1
*CAP
1 *4326:C 2.76428e-05
2 *4324:X 2.76428e-05
3 *4324:A2 *4326:C 4.05358e-05
4 *144:140 *4326:C 4.05358e-05
*RES
1 *4324:X *4326:C 8.07 
*END

*D_NET *251 0.00203726
*CONN
*I *4326:A_N I *D sky130_fd_sc_hd__and3b_1
*I *4328:A2 I *D sky130_fd_sc_hd__o21ai_1
*I *4325:X O *D sky130_fd_sc_hd__and3_1
*CAP
1 *4326:A_N 0
2 *4328:A2 0.000278819
3 *4325:X 0.000265408
4 *251:12 0.000544227
5 *4328:A2 *458:12 0
6 *4328:A2 *458:14 0
7 *4328:A2 *458:20 0
8 *251:12 *4325:B 0.000180997
9 *251:12 *458:46 0.000156119
10 *4168:B1 *4328:A2 8.47629e-05
11 *4325:C *251:12 0.000161837
12 *4501:A *251:12 4.99619e-05
13 *144:138 *4328:A2 1.89685e-05
14 *144:140 *4328:A2 0.000296161
*RES
1 *4325:X *251:12 8.395 
2 *251:12 *4328:A2 12.08 
3 *251:12 *4326:A_N 1.6 
*END

*D_NET *252 0.0060266
*CONN
*I *4332:A2 I *D sky130_fd_sc_hd__a21o_1
*I *4335:A3 I *D sky130_fd_sc_hd__a31o_1
*I *4331:A2 I *D sky130_fd_sc_hd__a21oi_1
*I *4330:A2 I *D sky130_fd_sc_hd__o21ai_1
*I *4333:C I *D sky130_fd_sc_hd__nand3_1
*I *4329:A I *D sky130_fd_sc_hd__nor2_1
*I *4327:X O *D sky130_fd_sc_hd__and4_2
*CAP
1 *4332:A2 7.12924e-05
2 *4335:A3 0.000370543
3 *4331:A2 0
4 *4330:A2 0
5 *4333:C 6.62097e-05
6 *4329:A 6.76778e-05
7 *4327:X 4.87085e-05
8 *252:62 0.000719411
9 *252:37 0.00027298
10 *252:33 0.000650167
11 *252:12 0.000818105
12 *252:6 0.000633315
13 *4329:A *4282:B 1.19928e-05
14 *4332:A2 *4332:A1 9.53428e-06
15 *4332:A2 *4332:B1 9.72742e-06
16 *4333:C *4167:A1 8.65961e-05
17 *4333:C *4331:A1 4.66108e-05
18 *4333:C *4333:B 4.82919e-05
19 *4333:C *471:51 7.30547e-05
20 *4335:A3 *4327:A 0
21 *4335:A3 *4327:B 0
22 *4335:A3 *4334:B 0
23 *4335:A3 *4334:C 0.000108708
24 *4335:A3 *4335:A2 4.99619e-05
25 *4335:A3 *4335:B1 4.60584e-05
26 *252:6 *458:12 2.75145e-05
27 *252:12 *4282:B 2.23407e-05
28 *252:12 *4327:A 0
29 *252:12 *4329:B 0.000291365
30 *252:12 *4414:D 0
31 *252:12 *259:106 2.50049e-05
32 *252:33 *4167:A1 0.000310394
33 *252:33 *4282:B 4.31189e-05
34 *252:33 *261:84 0
35 *252:37 *4167:A1 3.52139e-06
36 *252:37 *4331:A1 3.23663e-05
37 *4168:B1 *252:12 5.21545e-05
38 *4168:B1 *252:33 0.000112992
39 *4327:D *4335:A3 0
40 *4327:D *252:6 7.00889e-06
41 *4327:D *252:62 5.8825e-05
42 *4330:B1 *4333:C 2.7881e-05
43 *4334:A *4335:A3 2.75145e-05
44 *4489:A *4335:A3 0.000164352
45 *4519:A *4329:A 0.000120655
46 *4519:A *252:33 0
47 *4543:A *252:37 0.000122331
48 *4546:A *4329:A 8.49205e-05
49 *100:8 *252:33 0.000191243
50 *100:8 *252:37 1.85674e-05
51 *100:20 *252:12 0
52 *100:20 *252:33 7.35813e-05
53 *100:57 *4333:C 0
*RES
1 *4327:X *252:6 2.395 
2 *252:6 *252:12 8.33 
3 *252:12 *4329:A 5.355 
4 *252:12 *252:33 11.615 
5 *252:33 *252:37 3.045 
6 *252:37 *4333:C 7.52 
7 *252:37 *4330:A2 1.6 
8 *252:33 *4331:A2 1.6 
9 *252:6 *252:62 3.9 
10 *252:62 *4335:A3 13.28 
11 *252:62 *4332:A2 2.755 
*END

*D_NET *253 0.00026143
*CONN
*I *4545:A I *D sky130_fd_sc_hd__dlygate4sd3_1
*I *4328:Y O *D sky130_fd_sc_hd__o21ai_1
*CAP
1 *4545:A 0.000105734
2 *4328:Y 0.000105734
3 *4545:A *4328:A1 4.99619e-05
*RES
1 *4328:Y *4545:A 4.955 
*END

*D_NET *254 0.000111545
*CONN
*I *4331:B1 I *D sky130_fd_sc_hd__a21oi_1
*I *4330:Y O *D sky130_fd_sc_hd__o21ai_1
*CAP
1 *4331:B1 5.81042e-06
2 *4330:Y 5.81042e-06
3 *4331:B1 *4167:A1 4.99619e-05
4 *4331:B1 *4331:A1 4.99619e-05
*RES
1 *4330:Y *4331:B1 3.65 
*END

*D_NET *255 0.000658752
*CONN
*I *4488:A I *D sky130_fd_sc_hd__dlygate4sd3_1
*I *4332:X O *D sky130_fd_sc_hd__a21o_1
*CAP
1 *4488:A 0.000196345
2 *4332:X 0.000196345
3 *4488:A *4332:B1 0.000203178
4 *4488:A *4334:B 0
5 *4488:A *4544:A 0
6 *4489:A *4488:A 6.28843e-05
*RES
1 *4332:X *4488:A 10.41 
*END

*D_NET *256 0.00330761
*CONN
*I *4336:A2 I *D sky130_fd_sc_hd__o211a_1
*I *4334:C I *D sky130_fd_sc_hd__and3_1
*I *4333:Y O *D sky130_fd_sc_hd__nand3_1
*CAP
1 *4336:A2 0.000132919
2 *4334:C 0.000509712
3 *4333:Y 0.000140851
4 *256:10 0.000783483
5 *4334:C *4130:C_N 0.000173191
6 *4334:C *4130:D_N 8.09021e-06
7 *4334:C *4333:A 7.04021e-05
8 *4334:C *4335:B1 0.000201503
9 *4334:C *403:10 9.3062e-06
10 *4334:C *471:8 0.000291379
11 *4334:C *471:12 0.000206817
12 *4334:C *471:51 5.56629e-05
13 *256:10 *4333:A 0.000121714
14 *256:10 *471:51 0.000306622
15 *4335:A3 *4334:C 0.000108708
16 *4336:C1 *4336:A2 4.00541e-06
17 *4543:A *256:10 4.82919e-05
18 *144:122 *4336:A2 6.3889e-05
19 *144:124 *4336:A2 7.10578e-05
*RES
1 *4333:Y *256:10 7.725 
2 *256:10 *4334:C 14.4825 
3 *256:10 *4336:A2 6.135 
*END

*D_NET *257 0.00133508
*CONN
*I *4336:B1 I *D sky130_fd_sc_hd__o211a_1
*I *4335:X O *D sky130_fd_sc_hd__a31o_1
*CAP
1 *4336:B1 0.000422011
2 *4335:X 0.000422011
3 *4336:B1 *4130:B 0.000173201
4 *4336:B1 *4130:D_N 8.34348e-05
5 *4336:B1 *4333:A 0.00011398
6 *4336:B1 *4416:D 9.54469e-05
7 *4336:B1 *4417:D 0
8 *4336:B1 *4487:A 0
9 *4336:B1 *259:14 0
10 *4336:B1 *403:10 2.4997e-05
*RES
1 *4335:X *4336:B1 14.745 
*END

*D_NET *258 0.000835982
*CONN
*I *4481:A I *D sky130_fd_sc_hd__dlygate4sd3_1
*I *4337:X O *D sky130_fd_sc_hd__o221a_1
*CAP
1 *4481:A 8.57588e-05
2 *4337:X 8.57588e-05
3 *4481:A *4337:B2 0.000309998
4 *4483:A *4481:A 8.73389e-06
5 *100:193 *4481:A 0.000345733
*RES
1 *4337:X *4481:A 6.77 
*END

*D_NET *259 0.032728
*CONN
*I *570:DIODE I *D sky130_fd_sc_hd__diode_2
*I *4426:A I *D sky130_fd_sc_hd__clkbuf_16
*I *563:DIODE I *D sky130_fd_sc_hd__diode_2
*I *567:DIODE I *D sky130_fd_sc_hd__diode_2
*I *566:DIODE I *D sky130_fd_sc_hd__diode_2
*I *4422:A I *D sky130_fd_sc_hd__clkbuf_16
*I *4423:A I *D sky130_fd_sc_hd__clkbuf_16
*I *565:DIODE I *D sky130_fd_sc_hd__diode_2
*I *4421:A I *D sky130_fd_sc_hd__clkbuf_16
*I *4420:A I *D sky130_fd_sc_hd__clkbuf_16
*I *564:DIODE I *D sky130_fd_sc_hd__diode_2
*I *571:DIODE I *D sky130_fd_sc_hd__diode_2
*I *4427:A I *D sky130_fd_sc_hd__clkbuf_16
*I *569:DIODE I *D sky130_fd_sc_hd__diode_2
*I *4425:A I *D sky130_fd_sc_hd__clkbuf_16
*I *4424:A I *D sky130_fd_sc_hd__clkbuf_16
*I *568:DIODE I *D sky130_fd_sc_hd__diode_2
*I *4419:X O *D sky130_fd_sc_hd__clkbuf_16
*CAP
1 *570:DIODE 3.63371e-05
2 *4426:A 2.56135e-05
3 *563:DIODE 0
4 *567:DIODE 8.0003e-05
5 *566:DIODE 0
6 *4422:A 0.000238276
7 *4423:A 0
8 *565:DIODE 0
9 *4421:A 0
10 *4420:A 0.000522058
11 *564:DIODE 9.43093e-05
12 *571:DIODE 5.2201e-05
13 *4427:A 7.76463e-06
14 *569:DIODE 0
15 *4425:A 2.4121e-05
16 *4424:A 0
17 *568:DIODE 0
18 *4419:X 0.000197228
19 *259:213 0.000864273
20 *259:173 0.000661106
21 *259:164 0.000689604
22 *259:160 0.00123773
23 *259:154 0.00103198
24 *259:152 0.00100781
25 *259:116 0.00107385
26 *259:106 0.000986779
27 *259:92 0.00123909
28 *259:64 0.000745633
29 *259:53 0.000798591
30 *259:42 0.000614652
31 *259:31 0.00112256
32 *259:20 0.000999013
33 *259:14 0.00159402
34 *259:8 0.000791848
35 *564:DIODE *4254:A1 0.000226387
36 *564:DIODE *4255:B 8.65905e-05
37 *567:DIODE *373:257 6.10014e-05
38 *567:DIODE *488:66 4.66108e-05
39 *570:DIODE *4434:A 2.46007e-05
40 *570:DIODE *266:12 1.22762e-05
41 *571:DIODE *4178:A1 2.59981e-05
42 *571:DIODE *267:8 4.82863e-05
43 *571:DIODE *362:170 0
44 *4420:A *4257:A1 3.70488e-05
45 *4420:A *260:12 4.08514e-05
46 *4420:A *260:75 0.000135652
47 *4420:A *260:96 0.000109939
48 *4422:A *4484:A 8.49205e-05
49 *4422:A *400:6 4.99619e-05
50 *4427:A *4158:C1 4.99619e-05
51 *4427:A *267:8 4.82919e-05
52 *259:8 *306:12 2.75229e-05
53 *259:8 *306:24 1.34503e-05
54 *259:14 *4167:A1 0
55 *259:14 *4189:A1 0.000620954
56 *259:14 *4204:B 0.00012904
57 *259:14 *4415:CLK 0.000186099
58 *259:14 *4417:D 7.07801e-05
59 *259:14 *266:22 3.98952e-05
60 *259:14 *306:12 2.86623e-05
61 *259:14 *308:10 0
62 *259:14 *350:14 8.53113e-06
63 *259:20 *4417:D 6.74079e-05
64 *259:20 *264:88 0.000458473
65 *259:20 *350:14 0.000116853
66 *259:31 *264:8 9.46525e-06
67 *259:31 *264:88 7.23635e-05
68 *259:42 *4155:A 0.000533416
69 *259:42 *4156:B1 0.000160641
70 *259:42 *4285:D1 2.12979e-05
71 *259:42 *4340:D 0.000164388
72 *259:42 *4444:A 4.99619e-05
73 *259:42 *265:10 0.000132842
74 *259:42 *265:51 0.000118229
75 *259:42 *265:57 4.82919e-05
76 *259:53 *4156:B1 0
77 *259:53 *4480:A 0
78 *259:53 *265:10 5.16418e-05
79 *259:64 *4170:A0 0
80 *259:64 *4172:A1 0.000982644
81 *259:64 *4178:A1 9.83597e-05
82 *259:64 *4178:C1 7.57302e-05
83 *259:64 *4480:A 0
84 *259:64 *305:12 7.06865e-05
85 *259:64 *362:164 0
86 *259:64 *362:170 0
87 *259:92 *4130:C_N 0.000518704
88 *259:92 *403:8 8.49205e-05
89 *259:92 *473:6 4.60584e-05
90 *259:106 *4328:A1 0.000238919
91 *259:106 *4329:B 0.000190705
92 *259:106 *4414:CLK 0
93 *259:106 *473:6 2.16917e-05
94 *259:116 *4254:A1 8.43946e-05
95 *259:116 *4398:CLK 3.64998e-06
96 *259:152 *4204:B 0.00013521
97 *259:152 *266:22 8.08153e-06
98 *259:152 *306:12 5.84456e-05
99 *259:154 *460:133 0.000157968
100 *259:160 *4133:B 0
101 *259:160 *4471:A 4.91189e-05
102 *259:160 *4536:A 8.69182e-05
103 *259:160 *373:257 0.000187409
104 *259:160 *460:126 0.000535986
105 *259:160 *460:133 0.000134314
106 *259:160 *465:8 0
107 *259:160 *488:20 4.24292e-06
108 *259:164 *4192:A 0.000260898
109 *259:164 *4431:A 0.000380194
110 *259:164 *263:8 4.21973e-05
111 *259:173 *4245:C1 0.000119756
112 *259:173 *4246:A1 0.000318091
113 *259:173 *4431:A 5.14739e-05
114 *259:213 *4202:A 0
115 *259:213 *4203:A1 0
116 *259:213 *4363:CLK 0
117 *259:213 *4363:D 6.77062e-05
118 *259:213 *4532:A 0.000284274
119 *259:213 *266:12 2.24336e-05
120 *259:213 *460:133 2.39856e-05
121 *259:213 *460:156 1.29866e-05
122 *259:213 *461:25 0
123 *531:DIODE *259:160 0.000124895
124 *4146:B *259:42 7.3664e-05
125 *4146:B *259:53 6.44741e-05
126 *4151:A2 *259:14 0
127 *4163:B1 *259:64 0
128 *4168:B1 *259:106 0.000141599
129 *4171:B *259:64 0.000263556
130 *4203:C1 *259:213 0
131 *4205:A2 *259:8 6.90876e-05
132 *4205:C1 *259:8 4.99619e-05
133 *4205:C1 *259:160 4.82919e-05
134 *4211:B *259:160 0
135 *4220:B1 *570:DIODE 4.84393e-05
136 *4220:B1 *259:213 0.000207554
137 *4220:C1 *259:213 7.07957e-05
138 *4246:B1 *259:173 2.75229e-05
139 *4251:A *4420:A 0.000347911
140 *4251:B *4420:A 4.66108e-05
141 *4252:B *259:116 0.000317507
142 *4252:C *4420:A 0
143 *4257:A2 *4420:A 0.000464499
144 *4336:A1 *259:14 0.000137571
145 *4336:A1 *259:92 3.64998e-06
146 *4336:B1 *259:14 0
147 *4337:B1 *259:53 0.00011595
148 *4337:C1 *4425:A 8.23457e-05
149 *4337:C1 *259:53 8.12462e-06
150 *4382:D *4420:A 0.000108659
151 *4398:D *259:116 3.68682e-05
152 *4469:A *259:116 0.000127118
153 *4483:A *4425:A 8.23457e-05
154 *4558:A *259:8 0.000120655
155 *4573:A *259:64 0
156 *4594:A *259:173 2.8185e-05
157 *97:22 *259:160 9.80032e-06
158 *100:193 *259:53 4.9968e-05
159 *100:317 *259:160 0.000271314
160 *100:338 *259:160 0.000276441
161 *122:32 *259:164 0.0001249
162 *122:45 *259:164 0.000261321
163 *131:12 *259:160 0.000308055
164 *133:93 *259:64 0.000213935
165 *133:108 *259:64 8.44217e-05
166 *134:83 *4426:A 2.11084e-05
167 *142:10 *259:53 2.97004e-06
168 *142:10 *259:64 0.000112794
169 *144:138 *259:106 0.000235568
170 *151:16 *567:DIODE 0.00010596
171 *151:16 *259:160 0.00109342
172 *200:37 *4420:A 0
173 *252:12 *259:106 2.50049e-05
*RES
1 *4419:X *259:8 7.5 
2 *259:8 *259:14 13.155 
3 *259:14 *259:20 7.625 
4 *259:20 *568:DIODE 1.6 
5 *259:20 *259:31 7.47 
6 *259:31 *4424:A 1.6 
7 *259:31 *259:42 13.4 
8 *259:42 *4425:A 4.395 
9 *259:42 *259:53 2.91 
10 *259:53 *569:DIODE 3.6 
11 *259:53 *259:64 17.895 
12 *259:64 *4427:A 4.05 
13 *259:64 *571:DIODE 4.665 
14 *259:14 *259:92 15.335 
15 *259:92 *259:106 14.845 
16 *259:106 *259:116 12.715 
17 *259:116 *564:DIODE 3.775 
18 *259:116 *4420:A 18.035 
19 *259:106 *4421:A 1.6 
20 *259:92 *565:DIODE 1.6 
21 *259:8 *259:152 3.635 
22 *259:152 *259:154 2.52 
23 *259:154 *259:160 26 
24 *259:160 *259:164 9.695 
25 *259:164 *4423:A 1.6 
26 *259:164 *259:173 7.365 
27 *259:173 *4422:A 5.155 
28 *259:173 *566:DIODE 1.6 
29 *259:160 *567:DIODE 5.43 
30 *259:154 *563:DIODE 1.6 
31 *259:152 *259:213 15.755 
32 *259:213 *4426:A 4.05 
33 *259:213 *570:DIODE 4.725 
*END

*D_NET *260 0.00960877
*CONN
*I *4381:CLK I *D sky130_fd_sc_hd__dfxtp_1
*I *4398:CLK I *D sky130_fd_sc_hd__dfxtp_1
*I *4383:CLK I *D sky130_fd_sc_hd__dfxtp_1
*I *4428:A I *D sky130_fd_sc_hd__inv_6
*I *4386:CLK I *D sky130_fd_sc_hd__dfxtp_1
*I *4384:CLK I *D sky130_fd_sc_hd__dfxtp_1
*I *4350:CLK I *D sky130_fd_sc_hd__dfxtp_1
*I *4385:CLK I *D sky130_fd_sc_hd__dfxtp_1
*I *4420:X O *D sky130_fd_sc_hd__clkbuf_16
*CAP
1 *4381:CLK 0.000396153
2 *4398:CLK 0.000223256
3 *4383:CLK 0.000165248
4 *4428:A 0
5 *4386:CLK 2.16763e-05
6 *4384:CLK 6.6583e-05
7 *4350:CLK 0.000438422
8 *4385:CLK 0.00029092
9 *4420:X 0
10 *260:96 0.00100584
11 *260:75 0.000761733
12 *260:37 0.000591687
13 *260:24 0.000541667
14 *260:20 0.000861078
15 *260:12 0.00111666
16 *260:4 0.000651379
17 *4350:CLK *4350:D 0
18 *4381:CLK *4381:D 4.70343e-05
19 *4381:CLK *510:14 0
20 *4383:CLK *281:23 0
21 *4383:CLK *385:12 0
22 *4384:CLK *283:10 3.09179e-05
23 *4386:CLK *283:23 3.05373e-05
24 *260:12 *282:19 5.51158e-05
25 *260:20 *4106:B 5.05437e-05
26 *260:20 *4386:D 1.869e-05
27 *260:20 *284:10 2.17886e-05
28 *260:24 *283:10 7.55313e-05
29 *260:24 *283:23 5.99925e-05
30 *260:37 *283:10 1.16578e-05
31 *260:75 *281:23 0
32 *4251:B *260:96 4.66108e-05
33 *4252:C *4381:CLK 0
34 *4257:A2 *260:12 0.000464499
35 *4263:A2 *260:24 0
36 *4382:D *260:96 0.000213619
37 *4385:D *4385:CLK 7.82691e-05
38 *4385:D *260:24 0
39 *4398:D *4398:CLK 1.43717e-05
40 *4420:A *260:12 4.08514e-05
41 *4420:A *260:75 0.000135652
42 *4420:A *260:96 0.000109939
43 *4469:A *4398:CLK 3.26889e-05
44 *134:24 *4383:CLK 0.000177723
45 *134:24 *260:75 5.20968e-05
46 *140:18 *4381:CLK 0
47 *140:18 *4398:CLK 0
48 *140:18 *260:96 0.000238137
49 *204:10 *260:96 0.000347029
50 *207:10 *4350:CLK 4.91189e-05
51 *207:19 *4350:CLK 7.04021e-05
52 *207:19 *260:24 0
53 *207:36 *4386:CLK 0
54 *207:36 *260:24 0
55 *259:116 *4398:CLK 3.64998e-06
*RES
1 *4420:X *260:4 1.6 
2 *260:4 *260:12 10.57 
3 *260:12 *260:20 10.325 
4 *260:20 *260:24 5.165 
5 *260:24 *4385:CLK 5.86 
6 *260:24 *260:37 1.41 
7 *260:37 *4350:CLK 13.61 
8 *260:37 *4384:CLK 2.74 
9 *260:20 *4386:CLK 4.215 
10 *260:12 *4428:A 1.6 
11 *260:4 *260:75 5.3 
12 *260:75 *4383:CLK 7.275 
13 *260:75 *260:96 11.92 
14 *260:96 *4398:CLK 6.915 
15 *260:96 *4381:CLK 10.335 
*END

*D_NET *261 0.00945883
*CONN
*I *4414:CLK I *D sky130_fd_sc_hd__dfxtp_1
*I *4394:CLK I *D sky130_fd_sc_hd__dfxtp_1
*I *4393:CLK I *D sky130_fd_sc_hd__dfxtp_1
*I *4382:CLK I *D sky130_fd_sc_hd__dfxtp_1
*I *4413:CLK I *D sky130_fd_sc_hd__dfxtp_1
*I *4411:CLK I *D sky130_fd_sc_hd__dfxtp_1
*I *4410:CLK I *D sky130_fd_sc_hd__dfxtp_1
*I *4409:CLK I *D sky130_fd_sc_hd__dfxtp_1
*I *4412:CLK I *D sky130_fd_sc_hd__dfxtp_1
*I *4429:A I *D sky130_fd_sc_hd__clkinvlp_4
*I *4421:X O *D sky130_fd_sc_hd__clkbuf_16
*CAP
1 *4414:CLK 0.000139642
2 *4394:CLK 0.000747539
3 *4393:CLK 0
4 *4382:CLK 0.000248913
5 *4413:CLK 0.000116271
6 *4411:CLK 2.32169e-05
7 *4410:CLK 0.000122513
8 *4409:CLK 0.000157237
9 *4412:CLK 0
10 *4429:A 7.95331e-05
11 *4421:X 0
12 *261:86 0.000248913
13 *261:84 0.00113328
14 *261:46 0.000532115
15 *261:40 0.000648114
16 *261:36 0.000552915
17 *261:29 0.000305362
18 *261:16 0.000672515
19 *261:8 0.000823918
20 *261:4 0.000226086
21 *4394:CLK *4394:D 6.09704e-05
22 *4394:CLK *287:14 1.67266e-05
23 *4394:CLK *450:8 0
24 *4409:CLK *4409:D 0
25 *4409:CLK *516:14 0
26 *4410:CLK *4314:A1 1.46828e-05
27 *4410:CLK *516:14 0.000354719
28 *4411:CLK *4523:A 2.75229e-05
29 *4413:CLK *4324:B1 0.000237243
30 *261:40 *4324:A1 9.54469e-05
31 *261:40 *4411:D 0
32 *261:46 *4314:A1 9.27326e-05
33 *261:84 *4393:D 0
34 *4168:B1 *261:16 0
35 *4168:B1 *261:84 0
36 *4313:B *4409:CLK 7.23602e-05
37 *4314:B1 *261:46 8.44359e-05
38 *4322:B1 *261:40 0
39 *4324:A2 *4413:CLK 1.46828e-05
40 *4324:A2 *261:36 5.05437e-05
41 *4324:A2 *261:40 0.000107634
42 *4588:A *4410:CLK 0.000316421
43 *4588:A *261:46 0.000197269
44 *4589:A *261:46 1.61831e-05
45 *140:18 *4382:CLK 0.000138799
46 *140:18 *4394:CLK 0
47 *140:18 *261:84 0
48 *144:138 *4414:CLK 0.000233786
49 *144:138 *261:8 4.58257e-05
50 *144:138 *261:16 0.000154488
51 *144:140 *261:16 3.09233e-05
52 *144:140 *261:29 0
53 *144:140 *261:40 0
54 *144:148 *261:40 0
55 *144:148 *261:46 0
56 *242:48 *4410:CLK 1.34503e-05
57 *243:10 *4409:CLK 8.08153e-06
58 *243:10 *261:46 4.75576e-05
59 *247:25 *261:40 0.000248261
60 *252:33 *261:84 0
61 *259:106 *4414:CLK 0
*RES
1 *4421:X *261:4 1.6 
2 *261:4 *261:8 3.14 
3 *261:8 *261:16 7.88 
4 *261:16 *4429:A 2.74 
5 *261:16 *261:29 7.93 
6 *261:29 *4412:CLK 1.6 
7 *261:29 *261:36 1.14 
8 *261:36 *261:40 8.225 
9 *261:40 *261:46 7.76 
10 *261:46 *4409:CLK 8 
11 *261:46 *4410:CLK 5.86 
12 *261:40 *4411:CLK 4.05 
13 *261:36 *4413:CLK 4.12 
14 *261:8 *261:84 5.715 
15 *261:84 *261:86 2 
16 *261:86 *4382:CLK 5.845 
17 *261:86 *4393:CLK 1.6 
18 *261:84 *4394:CLK 13.26 
19 *261:4 *4414:CLK 4.39 
*END

*D_NET *262 0.00687371
*CONN
*I *4349:CLK I *D sky130_fd_sc_hd__dfxtp_1
*I *4391:CLK I *D sky130_fd_sc_hd__dfxtp_1
*I *4392:CLK I *D sky130_fd_sc_hd__dfxtp_1
*I *4430:A I *D sky130_fd_sc_hd__inv_6
*I *4390:CLK I *D sky130_fd_sc_hd__dfxtp_1
*I *4389:CLK I *D sky130_fd_sc_hd__dfxtp_1
*I *4388:CLK I *D sky130_fd_sc_hd__dfxtp_1
*I *4387:CLK I *D sky130_fd_sc_hd__dfxtp_1
*I *4422:X O *D sky130_fd_sc_hd__clkbuf_16
*CAP
1 *4349:CLK 0.000281713
2 *4391:CLK 1.17533e-05
3 *4392:CLK 0
4 *4430:A 2.08101e-05
5 *4390:CLK 0.000185153
6 *4389:CLK 7.95201e-05
7 *4388:CLK 0.000136976
8 *4387:CLK 0.000305579
9 *4422:X 0
10 *262:82 0.000424709
11 *262:73 0.00039065
12 *262:16 0.000791185
13 *262:14 0.000950733
14 *262:8 0.00108966
15 *262:6 0.000449179
16 *262:4 0.000305852
17 *4349:CLK *4391:D 9.54469e-05
18 *4388:CLK *4388:D 9.03376e-05
19 *4390:CLK *369:12 0
20 *4391:CLK *276:10 4.82863e-05
21 *4391:CLK *344:10 2.75145e-05
22 *262:6 *4278:A1 0.000276441
23 *262:8 *4275:A1 4.82863e-05
24 *262:8 *4278:A1 0.000124895
25 *262:16 *4270:B 0
26 *262:16 *4388:D 0
27 *262:73 *4278:A1 4.66108e-05
28 *262:73 *4279:B1 0.000142663
29 *262:73 *4392:D 0
30 *4275:B1 *262:8 0.000181906
31 *4278:A2 *4430:A 0
32 *4281:B *262:73 4.75576e-05
33 *4454:A *4390:CLK 0
34 *4505:A *262:16 0
35 *4598:A *4349:CLK 0
36 *4598:A *262:73 4.01778e-05
37 *4598:A *262:82 0
38 *219:6 *262:8 3.00381e-05
39 *219:17 *262:6 0.000157343
40 *219:17 *262:8 9.27326e-05
*RES
1 *4422:X *262:4 1.6 
2 *262:4 *262:6 2.52 
3 *262:6 *262:8 7.005 
4 *262:8 *262:14 9.59 
5 *262:14 *262:16 5.715 
6 *262:16 *4387:CLK 8.49 
7 *262:16 *4388:CLK 5.79 
8 *262:14 *4389:CLK 4.74 
9 *262:8 *4390:CLK 8.375 
10 *262:6 *4430:A 1.96 
11 *262:4 *262:73 6.845 
12 *262:73 *4392:CLK 3.6 
13 *262:73 *262:82 2.145 
14 *262:82 *4391:CLK 4.05 
15 *262:82 *4349:CLK 8.49 
*END

*D_NET *263 0.0115489
*CONN
*I *4375:CLK I *D sky130_fd_sc_hd__dfxtp_1
*I *4377:CLK I *D sky130_fd_sc_hd__dfxtp_1
*I *4395:CLK I *D sky130_fd_sc_hd__dfxtp_2
*I *4397:CLK I *D sky130_fd_sc_hd__dfxtp_4
*I *4379:CLK I *D sky130_fd_sc_hd__dfxtp_1
*I *4431:A I *D sky130_fd_sc_hd__inv_4
*I *4396:CLK I *D sky130_fd_sc_hd__dfxtp_2
*I *4380:CLK I *D sky130_fd_sc_hd__dfxtp_1
*I *4373:CLK I *D sky130_fd_sc_hd__dfxtp_1
*I *4378:CLK I *D sky130_fd_sc_hd__dfxtp_1
*I *4423:X O *D sky130_fd_sc_hd__clkbuf_16
*CAP
1 *4375:CLK 0.000295481
2 *4377:CLK 0.000622792
3 *4395:CLK 0
4 *4397:CLK 0.000410791
5 *4379:CLK 0.000394959
6 *4431:A 0.00020485
7 *4396:CLK 0
8 *4380:CLK 0.000120262
9 *4373:CLK 0.000430535
10 *4378:CLK 0
11 *4423:X 0.000110782
12 *263:80 0.000410791
13 *263:78 0.00069296
14 *263:65 0.000595327
15 *263:63 0.000497051
16 *263:18 0.000643648
17 *263:14 0.000399092
18 *263:12 0.000114623
19 *263:10 0.000283792
20 *263:8 0.000212189
21 *4373:CLK *4378:D 9.03376e-05
22 *4373:CLK *373:216 0.000370284
23 *4375:CLK *529:DIODE 1.83847e-05
24 *4375:CLK *4243:D 8.49205e-05
25 *4375:CLK *460:42 0.000457702
26 *4375:CLK *460:44 9.07709e-05
27 *4375:CLK *488:66 0.000175166
28 *4375:CLK *488:70 4.92062e-05
29 *4380:CLK *4145:A1 2.30292e-05
30 *4380:CLK *356:18 0.000307049
31 *4431:A *4192:A 8.23457e-05
32 *263:10 *290:8 3.68784e-05
33 *263:12 *290:8 5.38986e-06
34 *263:12 *290:29 0.000142455
35 *263:14 *290:29 0.000195238
36 *263:18 *4124:B2 0.000356583
37 *263:18 *4241:A2 4.75576e-05
38 *263:18 *290:29 0.000176647
39 *263:18 *373:222 8.38856e-05
40 *263:18 *373:231 2.24992e-05
41 *263:63 *4243:A 2.7881e-05
42 *263:63 *290:8 6.99988e-05
43 *263:65 *290:8 0.000116563
44 *263:78 *290:8 4.76581e-05
45 *4143:A3 *263:10 0
46 *4143:A3 *263:63 0
47 *4143:A3 *263:65 0
48 *4143:B1 *263:65 0
49 *4145:A2 *4380:CLK 0.000158066
50 *4152:A3 *4379:CLK 0.000304186
51 *4227:B *4375:CLK 6.77501e-05
52 *4227:C *4375:CLK 4.61684e-05
53 *4395:D *263:65 2.97004e-06
54 *4395:D *263:78 3.68682e-05
55 *4397:D *4397:CLK 0.000278111
56 *4397:D *263:78 0
57 *122:32 *263:8 8.65961e-05
58 *122:32 *263:10 2.7881e-05
59 *122:32 *263:12 8.97486e-05
60 *122:32 *263:14 0.000111324
61 *122:32 *263:18 9.1566e-05
62 *140:66 *4380:CLK 0.00011577
63 *180:10 *4373:CLK 8.65961e-05
64 *188:10 *4375:CLK 5.30673e-05
65 *259:164 *4431:A 0.000380194
66 *259:164 *263:8 4.21973e-05
67 *259:173 *4431:A 5.14739e-05
*RES
1 *4423:X *263:8 5.085 
2 *263:8 *263:10 0.87 
3 *263:10 *263:12 1.89 
4 *263:12 *263:14 2.4 
5 *263:14 *263:18 8.225 
6 *263:18 *4378:CLK 1.6 
7 *263:18 *4373:CLK 10.105 
8 *263:14 *4380:CLK 7.5 
9 *263:12 *4396:CLK 3.6 
10 *263:10 *4431:A 8.205 
11 *263:8 *263:63 1.635 
12 *263:63 *263:65 2.655 
13 *263:65 *4379:CLK 8.805 
14 *263:65 *263:78 1.635 
15 *263:78 *263:80 2 
16 *263:80 *4397:CLK 8.605 
17 *263:80 *4395:CLK 1.6 
18 *263:78 *4377:CLK 13.155 
19 *263:63 *4375:CLK 12.09 
*END

*D_NET *264 0.0119423
*CONN
*I *4357:CLK I *D sky130_fd_sc_hd__dfxtp_1
*I *4415:CLK I *D sky130_fd_sc_hd__dfxtp_1
*I *4399:CLK I *D sky130_fd_sc_hd__dfxtp_1
*I *4341:CLK I *D sky130_fd_sc_hd__dfxtp_1
*I *4417:CLK I *D sky130_fd_sc_hd__dfxtp_1
*I *4416:CLK I *D sky130_fd_sc_hd__dfxtp_1
*I *4432:A I *D sky130_fd_sc_hd__clkinv_2
*I *4404:CLK I *D sky130_fd_sc_hd__dfxtp_1
*I *4405:CLK I *D sky130_fd_sc_hd__dfxtp_1
*I *4407:CLK I *D sky130_fd_sc_hd__dfxtp_1
*I *4408:CLK I *D sky130_fd_sc_hd__dfxtp_1
*I *4406:CLK I *D sky130_fd_sc_hd__dfxtp_1
*I *4424:X O *D sky130_fd_sc_hd__clkbuf_16
*CAP
1 *4357:CLK 0
2 *4415:CLK 0.000424887
3 *4399:CLK 0.000187252
4 *4341:CLK 0
5 *4417:CLK 0
6 *4416:CLK 3.32751e-05
7 *4432:A 6.26341e-05
8 *4404:CLK 0
9 *4405:CLK 0
10 *4407:CLK 0
11 *4408:CLK 0.000308465
12 *4406:CLK 0.000251359
13 *4424:X 6.87143e-05
14 *264:119 0.000888354
15 *264:117 0.000648866
16 *264:102 0.000452361
17 *264:88 0.00038421
18 *264:82 0.000473199
19 *264:41 0.0012224
20 *264:29 0.000944351
21 *264:14 0.000620114
22 *264:12 0.00039777
23 *264:10 0.000275032
24 *264:8 0.000264236
25 *4399:CLK *4167:A1 0.000210933
26 *4399:CLK *4399:D 1.43717e-05
27 *4406:CLK *4303:A1 0.000176571
28 *4406:CLK *4406:D 1.43717e-05
29 *4406:CLK *446:10 0
30 *4408:CLK *4128:B 0
31 *4408:CLK *4590:A 6.47594e-05
32 *4415:CLK *4399:D 5.30673e-05
33 *4415:CLK *4415:D 2.49909e-05
34 *4416:CLK *4487:A 3.72916e-05
35 *264:10 *4299:A1 0
36 *264:10 *4341:D 0
37 *264:12 *4127:C 7.96171e-05
38 *264:14 *4127:C 6.86906e-05
39 *264:14 *4305:B 0
40 *264:14 *4405:D 5.2089e-05
41 *264:14 *446:10 0
42 *264:14 *446:36 0
43 *264:41 *4304:B1 1.82476e-05
44 *264:41 *4307:C 0.000143468
45 *264:41 *4309:B1 2.46089e-05
46 *264:41 *4605:A 0
47 *264:41 *353:10 5.05521e-05
48 *264:41 *353:29 0
49 *264:82 *4341:D 0
50 *264:88 *4417:D 1.43717e-05
51 *264:88 *4487:A 2.36616e-05
52 *264:102 *4341:D 0
53 *264:117 *4357:D 0
54 *264:119 *4190:A 2.49909e-05
55 *4189:A2 *264:117 0.000113972
56 *4190:C *264:119 3.81285e-05
57 *4284:B1 *264:117 7.70828e-05
58 *4303:B1 *4406:CLK 0
59 *4303:B1 *264:14 0
60 *4307:A_N *264:41 1.56428e-05
61 *4318:A *4408:CLK 0
62 *4334:A *4408:CLK 0
63 *4473:A *4406:CLK 0
64 *4517:A *4406:CLK 4.9253e-06
65 *4517:A *264:14 0
66 *4543:A *4399:CLK 3.64998e-06
67 *4543:A *4415:CLK 4.82919e-05
68 *4591:A *4408:CLK 0.000106037
69 *4592:A *4408:CLK 6.97118e-05
70 *100:90 *264:117 0
71 *130:16 *264:10 0.000285202
72 *130:16 *264:12 0.000201335
73 *130:16 *264:14 3.09233e-05
74 *130:16 *264:82 9.06521e-05
75 *130:16 *264:102 0.000153787
76 *130:16 *264:117 0.000175894
77 *133:42 *264:117 4.82919e-05
78 *133:42 *264:119 4.82863e-05
79 *144:18 *264:14 3.50657e-05
80 *144:68 *4408:CLK 3.90349e-05
81 *168:6 *264:117 1.47347e-05
82 *168:6 *264:119 1.83756e-05
83 *234:10 *264:14 0
84 *234:26 *264:14 0
85 *239:12 *4408:CLK 0.000293733
86 *239:20 *4408:CLK 7.22354e-05
87 *239:20 *264:41 0.000226804
88 *259:14 *4415:CLK 0.000186099
89 *259:20 *264:88 0.000458473
90 *259:31 *264:8 9.46525e-06
91 *259:31 *264:88 7.23635e-05
*RES
1 *4424:X *264:8 4.395 
2 *264:8 *264:10 3.42 
3 *264:10 *264:12 2.4 
4 *264:12 *264:14 5.97 
5 *264:14 *4406:CLK 8.52 
6 *264:14 *264:29 2.45 
7 *264:29 *264:41 17.155 
8 *264:41 *4408:CLK 13.055 
9 *264:41 *4407:CLK 1.6 
10 *264:29 *4405:CLK 1.6 
11 *264:12 *4404:CLK 3.6 
12 *264:10 *4432:A 4.395 
13 *264:8 *264:82 1.125 
14 *264:82 *264:88 9.02 
15 *264:88 *4416:CLK 2.395 
16 *264:88 *4417:CLK 1.6 
17 *264:82 *264:102 1.89 
18 *264:102 *4341:CLK 3.6 
19 *264:102 *264:117 9.125 
20 *264:117 *264:119 4.245 
21 *264:119 *4399:CLK 5.635 
22 *264:119 *4415:CLK 13.025 
23 *264:117 *4357:CLK 1.6 
*END

*D_NET *265 0.0123729
*CONN
*I *4418:CLK I *D sky130_fd_sc_hd__dfxtp_1
*I *4403:CLK I *D sky130_fd_sc_hd__dfxtp_1
*I *4339:CLK I *D sky130_fd_sc_hd__dfxtp_1
*I *4352:CLK I *D sky130_fd_sc_hd__dfxtp_1
*I *4344:CLK I *D sky130_fd_sc_hd__dfxtp_1
*I *4342:CLK I *D sky130_fd_sc_hd__dfxtp_1
*I *4340:CLK I *D sky130_fd_sc_hd__dfxtp_2
*I *4351:CLK I *D sky130_fd_sc_hd__dfxtp_1
*I *4433:A I *D sky130_fd_sc_hd__clkinv_2
*I *4400:CLK I *D sky130_fd_sc_hd__dfxtp_1
*I *4401:CLK I *D sky130_fd_sc_hd__dfxtp_1
*I *4402:CLK I *D sky130_fd_sc_hd__dfxtp_1
*I *4425:X O *D sky130_fd_sc_hd__clkbuf_16
*CAP
1 *4418:CLK 0
2 *4403:CLK 0.000252681
3 *4339:CLK 0
4 *4352:CLK 7.73328e-05
5 *4344:CLK 3.41908e-05
6 *4342:CLK 0
7 *4340:CLK 0
8 *4351:CLK 0.000302016
9 *4433:A 0
10 *4400:CLK 0.000158243
11 *4401:CLK 0
12 *4402:CLK 0.000470833
13 *4425:X 0
14 *265:130 0.00058777
15 *265:119 0.000717753
16 *265:93 0.000258365
17 *265:89 0.000700545
18 *265:57 0.000424103
19 *265:51 0.000274158
20 *265:47 0.000152071
21 *265:18 0.000548529
22 *265:12 0.000606755
23 *265:10 0.000599559
24 *265:4 0.000399783
25 *4344:CLK *4583:A 4.41506e-05
26 *4344:CLK *362:35 4.41506e-05
27 *4351:CLK *4155:A 0.00011879
28 *4351:CLK *4156:B1 0
29 *4351:CLK *4351:D 2.29028e-05
30 *4351:CLK *4583:A 8.34793e-05
31 *4351:CLK *360:75 0
32 *4352:CLK *373:48 4.66108e-05
33 *4400:CLK *4137:D_N 0.00018171
34 *4400:CLK *309:6 5.05521e-05
35 *4402:CLK *4514:A 5.05437e-05
36 *4403:CLK *4339:D 0
37 *265:10 *4342:D 2.92496e-05
38 *265:10 *4418:D 7.56928e-05
39 *265:10 *335:12 0.000565849
40 *265:12 *4125:B 0
41 *265:12 *4342:D 0.000116853
42 *265:12 *4497:A 0
43 *265:12 *362:70 7.39849e-05
44 *265:51 *4156:B1 0.000197269
45 *265:51 *4285:D1 0.00023468
46 *265:57 *4101:A 0
47 *265:57 *4155:A 4.19967e-05
48 *265:57 *4285:A2 4.43871e-06
49 *265:57 *4285:D1 1.61831e-05
50 *265:57 *360:75 0
51 *265:89 *4155:A 5.83121e-06
52 *265:89 *4418:D 5.39004e-05
53 *265:89 *335:12 0.00023416
54 *265:119 *4155:A 0.000146526
55 *265:130 *4155:A 0.000122325
56 *265:130 *4339:D 0
57 *265:130 *4612:A 2.03321e-05
58 led[1] *265:130 0.000135903
59 *4146:B *265:10 1.14559e-05
60 *4146:B *265:12 1.82476e-05
61 *4147:B1 *265:12 1.26548e-05
62 *4155:B *265:130 4.21973e-05
63 *4175:A2 *4351:CLK 9.50342e-06
64 *4286:B *265:12 0.000137571
65 *4286:B *265:51 2.75145e-05
66 *4290:B *4402:CLK 0.000106148
67 *4290:B *265:18 2.49909e-05
68 *4293:C *265:12 3.09233e-05
69 *4293:C *265:18 0.000183738
70 *4296:C *4402:CLK 8.65905e-05
71 *4298:A *4402:CLK 7.22354e-05
72 *4337:B1 *265:10 0.000165712
73 *4337:B1 *265:12 0.000180387
74 *4401:D *4402:CLK 0.000110161
75 *4401:D *265:18 0.000139508
76 *4402:D *4402:CLK 2.30292e-05
77 *4483:A *265:10 0.000305651
78 *4507:A *265:12 0.000116158
79 *4513:A *4403:CLK 0
80 *100:127 *265:12 0
81 *100:193 *265:93 9.3193e-05
82 *100:206 *4352:CLK 0.000198279
83 *100:206 *265:93 0.000135916
84 *134:115 *4352:CLK 0.000204456
85 *134:115 *265:93 0.000209873
86 *134:119 *265:93 9.30787e-05
87 *225:10 *265:12 0
88 *228:8 *265:12 0
89 *228:8 *265:18 0
90 *259:42 *265:10 0.000132842
91 *259:42 *265:51 0.000118229
92 *259:42 *265:57 4.82919e-05
93 *259:53 *265:10 5.16418e-05
*RES
1 *4425:X *265:4 1.6 
2 *265:4 *265:10 9.935 
3 *265:10 *265:12 8.01 
4 *265:12 *265:18 4.595 
5 *265:18 *4402:CLK 10.465 
6 *265:18 *4401:CLK 1.6 
7 *265:12 *4400:CLK 7.155 
8 *265:10 *265:47 2 
9 *265:47 *265:51 4.26 
10 *265:51 *265:57 4.34 
11 *265:57 *4433:A 3.6 
12 *265:57 *4351:CLK 9.375 
13 *265:51 *4340:CLK 1.6 
14 *265:47 *4342:CLK 1.6 
15 *265:4 *265:89 3.555 
16 *265:89 *265:93 5.675 
17 *265:93 *4344:CLK 4.395 
18 *265:93 *4352:CLK 6.45 
19 *265:89 *265:119 4.875 
20 *265:119 *4339:CLK 1.6 
21 *265:119 *265:130 8.36 
22 *265:130 *4403:CLK 7.785 
23 *265:130 *4418:CLK 3.6 
*END

*D_NET *266 0.0150043
*CONN
*I *4366:CLK I *D sky130_fd_sc_hd__dfxtp_1
*I *4368:CLK I *D sky130_fd_sc_hd__dfxtp_1
*I *4434:A I *D sky130_fd_sc_hd__clkbuf_8
*I *4370:CLK I *D sky130_fd_sc_hd__dfxtp_1
*I *4372:CLK I *D sky130_fd_sc_hd__dfxtp_1
*I *4367:CLK I *D sky130_fd_sc_hd__dfxtp_1
*I *4376:CLK I *D sky130_fd_sc_hd__dfxtp_1
*I *4374:CLK I *D sky130_fd_sc_hd__dfxtp_1
*I *4371:CLK I *D sky130_fd_sc_hd__dfxtp_1
*I *4363:CLK I *D sky130_fd_sc_hd__dfxtp_1
*I *4356:CLK I *D sky130_fd_sc_hd__dfxtp_1
*I *4364:CLK I *D sky130_fd_sc_hd__dfxtp_1
*I *4365:CLK I *D sky130_fd_sc_hd__dfxtp_1
*I *4426:X O *D sky130_fd_sc_hd__clkbuf_16
*CAP
1 *4366:CLK 0.000159796
2 *4368:CLK 0
3 *4434:A 0.000109778
4 *4370:CLK 8.8662e-05
5 *4372:CLK 0
6 *4367:CLK 1.77753e-05
7 *4376:CLK 0.00110291
8 *4374:CLK 0.000256361
9 *4371:CLK 1.3091e-05
10 *4363:CLK 0.00012705
11 *4356:CLK 0
12 *4364:CLK 2.08101e-05
13 *4365:CLK 0.000165973
14 *4426:X 0
15 *266:151 0.000470254
16 *266:94 0.00139268
17 *266:79 0.000851965
18 *266:66 0.000433099
19 *266:46 0.000335417
20 *266:33 0.000410072
21 *266:22 0.00070143
22 *266:18 0.000450962
23 *266:16 0.000511425
24 *266:12 0.000720672
25 *266:8 0.000566519
26 *266:4 0.000646615
27 *4363:CLK *4187:A1 0.000145062
28 *4363:CLK *460:156 1.83756e-05
29 *4365:CLK *4165:A1 0.000617727
30 *4365:CLK *307:15 0.000151541
31 *4365:CLK *308:10 6.6925e-05
32 *4366:CLK *490:10 0
33 *4370:CLK *461:25 3.0381e-05
34 *4376:CLK *4140:C 0
35 *4376:CLK *4367:D 5.36069e-06
36 *4376:CLK *4463:A 0
37 *4376:CLK *4560:A 0
38 *4434:A *4216:A1 0
39 *266:12 *4216:A1 0
40 *266:12 *4532:A 2.67022e-05
41 *266:16 *4221:A 1.17409e-05
42 *266:16 *461:25 3.07153e-05
43 *266:22 *4204:B 0
44 *266:22 *4205:A1 0.000117875
45 *266:22 *4222:A1 0.000406778
46 *266:22 *4363:D 0
47 *266:22 *4526:A 2.34423e-05
48 *266:22 *4557:A 0.000298435
49 *266:22 *306:12 0.00016163
50 *266:33 *4364:D 1.43717e-05
51 *266:33 *307:15 0.00015896
52 *266:46 *4187:A1 0.000139252
53 *266:46 *4364:D 0
54 *266:66 *4222:A1 0.000202293
55 *266:66 *4372:D 1.01661e-05
56 *266:66 *4526:A 9.4804e-05
57 *266:79 *4222:A1 0.00015997
58 *266:79 *4232:C 1.07797e-05
59 *266:79 *4372:D 5.98004e-06
60 *266:79 *4463:A 0
61 *266:151 *4213:A 0
62 *266:151 *4216:A1 0
63 *266:151 *4218:A1 0
64 *570:DIODE *4434:A 2.46007e-05
65 *570:DIODE *266:12 1.22762e-05
66 *4203:C1 *4363:CLK 0
67 *4210:B *4366:CLK 0.000348739
68 *4210:B *266:151 9.50342e-06
69 *4212:C1 *4376:CLK 7.70828e-05
70 *4216:B1 *266:151 0
71 *4220:A2 *4370:CLK 0
72 *4220:A2 *266:16 0.000330308
73 *4220:B1 *4434:A 0
74 *4231:A3 *4374:CLK 1.12319e-05
75 *4365:D *4365:CLK 0.000166946
76 *4366:D *4366:CLK 3.59997e-05
77 *4368:D *266:151 9.30787e-05
78 *4371:D *4371:CLK 4.82863e-05
79 *4371:D *266:79 5.21046e-05
80 *4374:D *4374:CLK 7.99219e-05
81 *4539:A *266:151 4.40899e-05
82 *4548:A *4376:CLK 8.87475e-05
83 *4580:A *266:46 5.05521e-05
84 *122:80 *266:79 0.000261882
85 *133:42 *4365:CLK 0.000154964
86 *133:42 *266:33 0.000132081
87 *133:42 *266:46 2.36616e-05
88 *134:83 *4371:CLK 1.83756e-05
89 *134:83 *266:8 0.00015184
90 *177:27 *266:79 0
91 *178:69 *266:79 0.000204463
92 *180:70 *4434:A 5.05437e-05
93 *259:14 *266:22 3.98952e-05
94 *259:152 *266:22 8.08153e-06
95 *259:213 *4363:CLK 0
96 *259:213 *266:12 2.24336e-05
*RES
1 *4426:X *266:4 1.6 
2 *266:4 *266:8 6.245 
3 *266:8 *266:12 4.145 
4 *266:12 *266:16 6.84 
5 *266:16 *266:18 2 
6 *266:18 *266:22 11.795 
7 *266:22 *4365:CLK 8.965 
8 *266:22 *266:33 3.9 
9 *266:33 *4364:CLK 1.96 
10 *266:33 *266:46 5.81 
11 *266:46 *4356:CLK 3.6 
12 *266:46 *4363:CLK 6.195 
13 *266:18 *266:66 2.4 
14 *266:66 *4371:CLK 4.05 
15 *266:66 *266:79 9.5 
16 *266:79 *4374:CLK 4.735 
17 *266:79 *266:94 3.675 
18 *266:94 *4376:CLK 22.88 
19 *266:94 *4367:CLK 1.96 
20 *266:16 *4372:CLK 1.6 
21 *266:12 *4370:CLK 3.22 
22 *266:8 *4434:A 5.52 
23 *266:4 *266:151 7.46 
24 *266:151 *4368:CLK 3.6 
25 *266:151 *4366:CLK 7.785 
*END

*D_NET *267 0.014554
*CONN
*I *4345:CLK I *D sky130_fd_sc_hd__dfxtp_1
*I *4343:CLK I *D sky130_fd_sc_hd__dfxtp_1
*I *4360:CLK I *D sky130_fd_sc_hd__dfxtp_1
*I *4358:CLK I *D sky130_fd_sc_hd__dfxtp_1
*I *4359:CLK I *D sky130_fd_sc_hd__dfxtp_1
*I *4347:CLK I *D sky130_fd_sc_hd__dfxtp_1
*I *4346:CLK I *D sky130_fd_sc_hd__dfxtp_1
*I *4348:CLK I *D sky130_fd_sc_hd__dfxtp_1
*I *4353:CLK I *D sky130_fd_sc_hd__dfxtp_1
*I *4362:CLK I *D sky130_fd_sc_hd__dfxtp_1
*I *4361:CLK I *D sky130_fd_sc_hd__dfxtp_1
*I *4369:CLK I *D sky130_fd_sc_hd__dfxtp_1
*I *4355:CLK I *D sky130_fd_sc_hd__dfxtp_1
*I *4354:CLK I *D sky130_fd_sc_hd__dfxtp_1
*I *4427:X O *D sky130_fd_sc_hd__clkbuf_16
*CAP
1 *4345:CLK 0.000677707
2 *4343:CLK 0.000443194
3 *4360:CLK 0
4 *4358:CLK 0.000544672
5 *4359:CLK 2.12116e-05
6 *4347:CLK 2.30856e-05
7 *4346:CLK 0
8 *4348:CLK 0.000495705
9 *4353:CLK 0
10 *4362:CLK 0
11 *4361:CLK 4.11423e-05
12 *4369:CLK 0
13 *4355:CLK 0
14 *4354:CLK 0.000203176
15 *4427:X 0
16 *267:118 0.000646005
17 *267:116 0.00066093
18 *267:101 0.000492173
19 *267:72 0.000533168
20 *267:65 0.000514327
21 *267:59 0.000600263
22 *267:57 0.000454872
23 *267:38 0.000141992
24 *267:14 0.000467727
25 *267:12 0.000491964
26 *267:8 0.000346494
27 *267:6 0.000368066
28 *267:4 0.000825842
29 *4345:CLK *4158:C1 0
30 *4345:CLK *4345:D 5.01066e-05
31 *4345:CLK *4615:A 0
32 *4345:CLK *467:8 3.39069e-05
33 *4347:CLK *4161:A1 1.31297e-05
34 *4347:CLK *4616:A 2.86975e-05
35 *4348:CLK *4348:D 9.03432e-05
36 *4354:CLK *4163:A1 4.52602e-05
37 *4354:CLK *4354:D 2.26916e-05
38 *4358:CLK *4195:A1 0.000172376
39 *4358:CLK *4195:B1 0.000116853
40 *4358:CLK *301:8 0.000139933
41 *4359:CLK *4194:B 4.82863e-05
42 *267:6 *4158:C1 0.000121987
43 *267:8 *4158:C1 0.00030842
44 *267:8 *305:12 1.46828e-05
45 *267:12 *4362:D 0.000126084
46 *267:12 *305:12 7.96098e-05
47 *267:14 *4181:C1 6.71803e-06
48 *267:14 *4184:A1 0
49 *267:14 *4355:D 9.54469e-05
50 *267:14 *4362:D 9.47454e-05
51 *267:14 *373:343 0
52 *267:14 *373:355 3.77455e-05
53 *267:14 *460:179 0
54 *267:14 *468:14 0
55 *267:38 *460:179 0
56 *267:59 *4347:D 0
57 *267:59 *4446:A 0.000158297
58 *267:59 *495:12 0
59 *267:65 *4177:B 0
60 *267:65 *4178:B1 0
61 *267:65 *4178:C1 0
62 *267:65 *4347:D 0
63 *267:65 *4353:D 1.43717e-05
64 *267:65 *4570:A 5.91331e-05
65 *267:65 *4614:A 0.000430158
66 *267:65 *495:12 0
67 *267:72 *4614:A 0.000135378
68 *267:101 *4446:A 0.000198286
69 *267:101 *4561:A 4.38721e-06
70 *267:101 *495:12 0
71 *267:116 *495:10 0
72 led[3] *4348:CLK 0
73 led[5] *4347:CLK 4.8854e-05
74 *539:DIODE *4345:CLK 5.53249e-06
75 *571:DIODE *267:8 4.82863e-05
76 *4153:A1 *267:101 7.06865e-05
77 *4153:A2 *267:101 4.18494e-05
78 *4163:B1 *267:65 0.000221832
79 *4164:B1 *267:65 0.000212781
80 *4164:B1 *267:72 6.27438e-05
81 *4178:A2 *267:14 3.46196e-05
82 *4195:A2 *4358:CLK 0.000120655
83 *4197:A2 *4358:CLK 0
84 *4359:D *267:116 9.54399e-05
85 *4360:D *4358:CLK 0.000194169
86 *4360:D *267:118 9.98977e-05
87 *4361:D *4361:CLK 9.27495e-05
88 *4427:A *267:8 4.82919e-05
89 *4535:A *267:14 0
90 *4563:A *4348:CLK 0.00015896
91 *4572:A *4354:CLK 0
92 *4572:A *267:14 0
93 *4578:A *4348:CLK 7.25552e-05
94 *97:77 *267:14 8.48193e-05
95 *97:77 *267:38 7.25036e-05
96 *100:206 *4348:CLK 3.05373e-05
97 *100:215 *4348:CLK 8.42441e-05
98 *100:245 *4348:CLK 8.97564e-05
99 *100:263 *4345:CLK 4.21973e-05
100 *100:263 *267:6 0.000120655
101 *100:263 *267:59 0
102 *100:263 *267:101 0
103 *133:147 *4345:CLK 0.000199734
104 *134:83 *4361:CLK 9.27495e-05
105 *134:93 *4345:CLK 8.73216e-05
106 *134:207 *4345:CLK 0.000119431
107 *143:31 *4354:CLK 0.00011852
108 *143:31 *267:14 0.000140912
*RES
1 *4427:X *267:4 1.6 
2 *267:4 *267:6 3.21 
3 *267:6 *267:8 4.935 
4 *267:8 *267:12 4.52 
5 *267:12 *267:14 6.225 
6 *267:14 *4354:CLK 7.08 
7 *267:14 *4355:CLK 3.6 
8 *267:12 *267:38 4.145 
9 *267:38 *4369:CLK 1.6 
10 *267:38 *4361:CLK 3.085 
11 *267:8 *4362:CLK 1.6 
12 *267:6 *267:57 2 
13 *267:57 *267:59 2.145 
14 *267:59 *267:65 12.815 
15 *267:65 *4353:CLK 1.6 
16 *267:65 *267:72 1.485 
17 *267:72 *4348:CLK 15.065 
18 *267:72 *4346:CLK 1.6 
19 *267:59 *4347:CLK 4.395 
20 *267:57 *267:101 6.48 
21 *267:101 *4359:CLK 4.05 
22 *267:101 *267:116 3.995 
23 *267:116 *267:118 1.83 
24 *267:118 *4358:CLK 14.615 
25 *267:118 *4360:CLK 1.6 
26 *267:116 *4343:CLK 7.915 
27 *267:4 *4345:CLK 17.69 
*END

*D_NET *268 0.0023928
*CONN
*I *4140:C I *D sky130_fd_sc_hd__or4b_1
*I *4463:A I *D sky130_fd_sc_hd__dlygate4sd3_1
*I *4374:Q O *D sky130_fd_sc_hd__dfxtp_1
*CAP
1 *4140:C 0.000505538
2 *4463:A 0.000259575
3 *4374:Q 0
4 *268:6 0.000765112
5 *4140:C *4140:A 6.27114e-05
6 *4140:C *4140:D_N 0.000198939
7 *4140:C *4231:A1 9.01848e-05
8 *4140:C *4232:A 0.000176511
9 *4140:C *4367:D 0
10 *4140:C *365:6 9.27495e-05
11 *4463:A *4367:D 0
12 *4212:C1 *4463:A 0
13 *4232:D *4140:C 0
14 *4376:CLK *4140:C 0
15 *4376:CLK *4463:A 0
16 *122:80 *4463:A 0
17 *177:72 *4463:A 0.000241483
18 *266:79 *4463:A 0
*RES
1 *4374:Q *268:6 3.6 
2 *268:6 *4463:A 8.43 
3 *268:6 *4140:C 13.965 
*END

*D_NET *269 0.000742507
*CONN
*I *4448:A I *D sky130_fd_sc_hd__dlygate4sd3_1
*I *4375:Q O *D sky130_fd_sc_hd__dfxtp_1
*CAP
1 *4448:A 0.000287189
2 *4375:Q 0.000287189
3 *4448:A *4140:D_N 4.43871e-06
4 *4448:A *379:32 0
5 *4230:B *4448:A 8.65961e-05
6 *4230:C *4448:A 7.70938e-05
*RES
1 *4375:Q *4448:A 11.415 
*END

*D_NET *270 0.00359441
*CONN
*I *4464:A I *D sky130_fd_sc_hd__dlygate4sd3_1
*I *4237:A1 I *D sky130_fd_sc_hd__a21o_1
*I *4238:B I *D sky130_fd_sc_hd__nand3_1
*I *4140:A I *D sky130_fd_sc_hd__or4b_1
*I *4376:Q O *D sky130_fd_sc_hd__dfxtp_1
*CAP
1 *4464:A 8.45394e-05
2 *4237:A1 0.000141174
3 *4238:B 0.000132319
4 *4140:A 0.00024017
5 *4376:Q 0.000107051
6 *270:16 0.000481996
7 *270:10 0.000436998
8 *270:8 0.000377908
9 *4140:A *4140:D_N 0.000218235
10 *4140:A *4231:A1 0.000312964
11 *4140:A *4231:B1 4.05674e-06
12 *4140:A *357:8 2.15594e-05
13 *4140:A *365:6 2.10034e-05
14 *4237:A1 *4237:B1 0.000123225
15 *4238:B *4234:A 0.000201503
16 *4238:B *4238:A 0.000183474
17 *4464:A *4239:C 0
18 *4464:A *380:10 0
19 *270:10 *357:8 3.09233e-05
20 *270:10 *380:10 0
21 *270:16 *357:8 9.95835e-05
22 *4140:C *4140:A 6.27114e-05
23 *4233:A_N *4140:A 0
24 *4236:A *4238:B 0.000238137
25 *4238:C *4238:B 1.61831e-05
26 *4239:A *270:10 0
27 *4239:A *270:16 0
28 *4239:B *4237:A1 8.73389e-06
29 *4376:D *270:10 0
30 *4442:A *4238:B 4.99619e-05
31 *188:32 *4140:A 0
*RES
1 *4376:Q *270:8 4.74 
2 *270:8 *270:10 3.165 
3 *270:10 *270:16 1.935 
4 *270:16 *4140:A 9.735 
5 *270:16 *4238:B 7.845 
6 *270:10 *4237:A1 5.775 
7 *270:8 *4464:A 4.98 
*END

*D_NET *271 0.000130723
*CONN
*I *4441:A I *D sky130_fd_sc_hd__dlygate4sd3_1
*I *4377:Q O *D sky130_fd_sc_hd__dfxtp_1
*CAP
1 *4441:A 4.12153e-05
2 *4377:Q 4.12153e-05
3 *4239:B *4441:A 4.82919e-05
*RES
1 *4377:Q *4441:A 4.01 
*END

*D_NET *272 0.00166767
*CONN
*I *4471:A I *D sky130_fd_sc_hd__dlygate4sd3_1
*I *4378:Q O *D sky130_fd_sc_hd__dfxtp_1
*CAP
1 *4471:A 0.000217596
2 *4378:Q 0.000217596
3 *4471:A *4133:B 5.39718e-05
4 *4471:A *4240:A 0.000157968
5 *4471:A *441:6 7.73773e-05
6 *4226:C1 *4471:A 0.000318091
7 *4482:A *4471:A 0.000575954
8 *97:22 *4471:A 0
9 *259:160 *4471:A 4.91189e-05
*RES
1 *4378:Q *4471:A 15.24 
*END

*D_NET *273 0.00313778
*CONN
*I *4516:A I *D sky130_fd_sc_hd__dlygate4sd3_1
*I *4110:C I *D sky130_fd_sc_hd__or4b_1
*I *4103:B I *D sky130_fd_sc_hd__or2_1
*I *4379:Q O *D sky130_fd_sc_hd__dfxtp_1
*CAP
1 *4516:A 7.2156e-05
2 *4110:C 0.000131801
3 *4103:B 0.00014936
4 *4379:Q 0.000138556
5 *273:12 0.000457312
6 *273:10 0.000386862
7 *4103:B *278:12 5.23362e-05
8 *4110:C *4110:B 5.05437e-05
9 *4110:C *276:33 4.60584e-05
10 *4110:C *277:14 4.99619e-05
11 *4110:C *278:12 0.000109377
12 *273:12 *4593:A 0.000239737
13 *273:12 *278:12 7.47284e-05
14 *4135:A2 *4103:B 0.000120655
15 *4244:A_N *4516:A 4.66108e-05
16 *4244:C *4516:A 6.97118e-05
17 *4244:C *273:12 7.44453e-05
18 *4246:A2 *273:10 2.92496e-05
19 *4246:A2 *273:12 0.000159964
20 *4379:D *273:10 0
21 *4594:A *273:12 1.1561e-05
22 *134:40 *273:10 0
23 *134:40 *273:12 0
24 *140:66 *4110:C 4.66742e-05
25 *140:181 *273:12 0.000110323
26 *198:6 *4516:A 0.000190633
27 *200:23 *4103:B 0.00016703
28 *200:23 *273:12 0.000152134
*RES
1 *4379:Q *273:10 5.685 
2 *273:10 *273:12 6.225 
3 *273:12 *4103:B 6.885 
4 *273:12 *4110:C 6.81 
5 *273:10 *4516:A 5.775 
*END

*D_NET *274 0.00386641
*CONN
*I *4475:A I *D sky130_fd_sc_hd__dlygate4sd3_1
*I *4119:C_N I *D sky130_fd_sc_hd__or4bb_1
*I *4117:A I *D sky130_fd_sc_hd__or4bb_1
*I *4112:D_N I *D sky130_fd_sc_hd__or4b_1
*I *4104:C I *D sky130_fd_sc_hd__or4b_1
*I *4389:Q O *D sky130_fd_sc_hd__dfxtp_1
*CAP
1 *4475:A 0
2 *4119:C_N 5.92912e-05
3 *4117:A 0
4 *4112:D_N 0.000125237
5 *4104:C 8.94804e-05
6 *4389:Q 0.000369373
7 *274:20 0.000252297
8 *274:16 0.000267711
9 *274:8 0.000540213
10 *4104:C *4104:D_N 8.49205e-05
11 *4104:C *4117:B 2.59981e-05
12 *4104:C *285:44 8.65905e-05
13 *4112:D_N *4104:D_N 4.66108e-05
14 *4112:D_N *4120:C 4.82863e-05
15 *4112:D_N *275:18 0.000123225
16 *4112:D_N *285:38 1.46828e-05
17 *4119:C_N *4119:B 0.000161837
18 *274:8 *4273:B 3.00381e-05
19 *274:8 *4274:B 0.000119756
20 *274:8 *391:6 7.57202e-05
21 *274:16 *4119:B 4.41506e-05
22 *274:16 *275:10 0.000191948
23 *274:16 *275:12 3.05295e-05
24 *274:16 *275:18 5.53249e-06
25 *274:20 *4117:B 2.31298e-05
26 *4113:D *4119:C_N 0.000237243
27 *4113:D *274:20 9.71067e-05
28 *4118:D *4104:C 5.30673e-05
29 *4278:B1 *274:8 0.000124007
30 *4476:A *274:8 7.35729e-05
31 *4477:A *274:8 1.33293e-05
32 *140:89 *274:16 8.47372e-05
33 *140:100 *4104:C 5.16348e-05
34 *140:100 *274:16 0.000183745
35 *140:100 *274:20 0.000131408
*RES
1 *4389:Q *274:8 8.275 
2 *274:8 *274:16 9.235 
3 *274:16 *274:20 3.635 
4 *274:20 *4104:C 6.045 
5 *274:20 *4112:D_N 5.775 
6 *274:16 *4117:A 1.6 
7 *274:16 *4119:C_N 4.12 
8 *274:8 *4475:A 1.6 
*END

*D_NET *275 0.00347846
*CONN
*I *4453:A I *D sky130_fd_sc_hd__dlygate4sd3_1
*I *4119:B I *D sky130_fd_sc_hd__or4bb_1
*I *4117:D_N I *D sky130_fd_sc_hd__or4bb_1
*I *4104:D_N I *D sky130_fd_sc_hd__or4b_1
*I *4112:A I *D sky130_fd_sc_hd__or4b_1
*I *4390:Q O *D sky130_fd_sc_hd__dfxtp_1
*CAP
1 *4453:A 0.000152241
2 *4119:B 0.000346595
3 *4117:D_N 0
4 *4104:D_N 4.62316e-05
5 *4112:A 0
6 *4390:Q 5.27258e-05
7 *275:18 0.000160329
8 *275:12 0.000136448
9 *275:10 0.000786696
10 *275:6 0.000622717
11 *4104:D_N *285:44 1.46828e-05
12 *4119:B *4104:A 5.05521e-05
13 *275:6 *369:12 2.11084e-05
14 *275:10 *391:25 0
15 *275:18 *4120:C 8.53113e-06
16 *275:18 *285:38 8.8266e-05
17 *275:18 *285:44 2.05056e-05
18 *275:18 *286:25 0
19 *4104:C *4104:D_N 8.49205e-05
20 *4112:D_N *4104:D_N 4.66108e-05
21 *4112:D_N *275:18 0.000123225
22 *4113:D *4119:B 2.17931e-05
23 *4119:C_N *4119:B 0.000161837
24 *4275:B1 *275:10 0
25 *4276:A *275:10 0
26 *4278:B1 *275:10 0.000134516
27 *4476:A *275:10 6.55328e-05
28 *140:100 *275:18 6.0236e-05
29 *213:49 *275:10 0
30 *213:49 *275:12 0
31 *219:39 *275:10 0
32 *274:16 *4119:B 4.41506e-05
33 *274:16 *275:10 0.000191948
34 *274:16 *275:12 3.05295e-05
35 *274:16 *275:18 5.53249e-06
*RES
1 *4390:Q *275:6 2.395 
2 *275:6 *275:10 10.265 
3 *275:10 *275:12 0.615 
4 *275:12 *275:18 5.03 
5 *275:18 *4112:A 1.6 
6 *275:18 *4104:D_N 2.74 
7 *275:12 *4117:D_N 3.6 
8 *275:10 *4119:B 9.24 
9 *275:6 *4453:A 3.79 
*END

*D_NET *276 0.00647321
*CONN
*I *4110:D_N I *D sky130_fd_sc_hd__or4b_1
*I *4114:B I *D sky130_fd_sc_hd__or4bb_1
*I *4119:D_N I *D sky130_fd_sc_hd__or4bb_1
*I *4104:B I *D sky130_fd_sc_hd__or4b_1
*I *4597:A I *D sky130_fd_sc_hd__dlygate4sd3_1
*I *4391:Q O *D sky130_fd_sc_hd__dfxtp_1
*CAP
1 *4110:D_N 0
2 *4114:B 0
3 *4119:D_N 0.000124011
4 *4104:B 4.68145e-05
5 *4597:A 0
6 *4391:Q 0.000480433
7 *276:39 0.000547001
8 *276:33 0.000664644
9 *276:23 0.00084113
10 *276:10 0.0010331
11 *4104:B *4104:A 2.75145e-05
12 *4119:D_N *4104:A 0.00015997
13 *4119:D_N *4117:B 0
14 *276:10 *4391:D 0.000187708
15 *276:10 *344:10 0.000106377
16 *276:23 *4392:D 0
17 *276:23 *277:8 6.28843e-05
18 *276:23 *277:14 0.000187416
19 *276:33 *4103:A 0
20 *276:33 *4114:A 0.000203067
21 *276:33 *4280:A 0
22 *276:33 *277:14 0.000100139
23 *276:33 *277:18 0.000164679
24 *276:39 *4104:A 2.75229e-05
25 *4108:A *276:33 4.82863e-05
26 *4108:A *276:39 0.000393317
27 *4108:B *276:39 8.65905e-05
28 *4108:D *4119:D_N 1.73877e-05
29 *4110:C *276:33 4.60584e-05
30 *4113:A *276:33 0.000222813
31 *4113:C *276:33 3.31282e-05
32 *4118:D *4119:D_N 0
33 *4118:D *276:39 6.07762e-05
34 *4276:A *276:10 0.00016569
35 *4391:CLK *276:10 4.82863e-05
36 *134:40 *276:23 0.000386471
37 *134:40 *276:33 0
*RES
1 *4391:Q *276:10 10.015 
2 *276:10 *4597:A 1.6 
3 *276:10 *276:23 15.91 
4 *276:23 *276:33 11.14 
5 *276:33 *276:39 6.09 
6 *276:39 *4104:B 2.41 
7 *276:39 *4119:D_N 8 
8 *276:33 *4114:B 1.6 
9 *276:23 *4110:D_N 1.6 
*END

*D_NET *277 0.00356627
*CONN
*I *4484:A I *D sky130_fd_sc_hd__dlygate4sd3_1
*I *4110:A I *D sky130_fd_sc_hd__or4b_1
*I *4119:A I *D sky130_fd_sc_hd__or4bb_1
*I *4104:A I *D sky130_fd_sc_hd__or4b_1
*I *4114:A I *D sky130_fd_sc_hd__or4bb_1
*I *4392:Q O *D sky130_fd_sc_hd__dfxtp_1
*CAP
1 *4484:A 3.83895e-05
2 *4110:A 0
3 *4119:A 0
4 *4104:A 0.000137299
5 *4114:A 8.28333e-05
6 *4392:Q 6.54975e-05
7 *277:35 0.000384322
8 *277:18 0.000391962
9 *277:14 0.000326665
10 *277:8 0.000368447
11 *277:8 *4392:D 0
12 *277:14 *4280:A 0
13 *277:14 *4392:D 0
14 *4104:B *4104:A 2.75145e-05
15 *4108:D *4104:A 4.43871e-06
16 *4110:C *277:14 4.99619e-05
17 *4113:A *277:35 1.08758e-05
18 *4113:B *277:18 4.05358e-05
19 *4113:C *4114:A 0.000161623
20 *4113:D *4104:A 0.0001249
21 *4113:D *277:35 0.000207263
22 *4118:D *4104:A 8.40213e-05
23 *4119:B *4104:A 5.05521e-05
24 *4119:D_N *4104:A 0.00015997
25 *4121:C *4104:A 0
26 *4135:A2 *277:35 1.85674e-05
27 *4422:A *4484:A 8.49205e-05
28 *276:23 *277:8 6.28843e-05
29 *276:23 *277:14 0.000187416
30 *276:33 *4114:A 0.000203067
31 *276:33 *277:14 0.000100139
32 *276:33 *277:18 0.000164679
33 *276:39 *4104:A 2.75229e-05
*RES
1 *4392:Q *277:8 4.98 
2 *277:8 *277:14 7.325 
3 *277:14 *277:18 3.89 
4 *277:18 *4114:A 6 
5 *277:18 *277:35 6.965 
6 *277:35 *4104:A 9.425 
7 *277:35 *4119:A 1.6 
8 *277:14 *4110:A 1.6 
9 *277:8 *4484:A 4.395 
*END

*D_NET *278 0.00199577
*CONN
*I *4593:A I *D sky130_fd_sc_hd__dlygate4sd3_1
*I *4103:A I *D sky130_fd_sc_hd__or2_1
*I *4110:B I *D sky130_fd_sc_hd__or4b_1
*I *4380:Q O *D sky130_fd_sc_hd__dfxtp_1
*CAP
1 *4593:A 0.000212618
2 *4103:A 7.14206e-05
3 *4110:B 6.04177e-05
4 *4380:Q 0
5 *278:12 0.000365059
6 *278:6 0.000445838
7 *4593:A *4245:A1 0
8 *4593:A *4245:B1 0
9 *4593:A *4246:A1 1.47347e-05
10 *4103:B *278:12 5.23362e-05
11 *4110:C *4110:B 5.05437e-05
12 *4110:C *278:12 0.000109377
13 *4594:A *4593:A 0.000162769
14 *134:24 *4103:A 6.46116e-05
15 *134:40 *4103:A 6.28498e-05
16 *140:66 *278:12 8.73389e-06
17 *273:12 *4593:A 0.000239737
18 *273:12 *278:12 7.47284e-05
19 *276:33 *4103:A 0
*RES
1 *4380:Q *278:6 3.6 
2 *278:6 *278:12 5.555 
3 *278:12 *4110:B 2.395 
4 *278:12 *4103:A 7.235 
5 *278:6 *4593:A 7.92 
*END

*D_NET *279 0.00449406
*CONN
*I *4581:A I *D sky130_fd_sc_hd__dlygate4sd3_1
*I *4111:C I *D sky130_fd_sc_hd__or4b_1
*I *4114:D_N I *D sky130_fd_sc_hd__or4bb_1
*I *4116:B I *D sky130_fd_sc_hd__or4bb_1
*I *4106:C I *D sky130_fd_sc_hd__nand4b_1
*I *4381:Q O *D sky130_fd_sc_hd__dfxtp_1
*CAP
1 *4581:A 0.000218629
2 *4111:C 2.08101e-05
3 *4114:D_N 0.000155051
4 *4116:B 0
5 *4106:C 0.000319246
6 *4381:Q 0
7 *279:18 0.00049143
8 *279:12 0.000447079
9 *279:8 0.000441062
10 *279:4 0.000519037
11 *4106:C *282:43 0.0001249
12 *4106:C *283:75 0
13 *4106:C *284:36 0
14 *4106:C *284:49 0
15 *4114:D_N *4109:A 9.54469e-05
16 *4114:D_N *4114:C_N 4.82863e-05
17 *4581:A *510:6 8.65961e-05
18 *4581:A *510:14 0
19 *279:12 *4111:B 2.8185e-05
20 *279:12 *4116:C_N 1.91597e-05
21 *279:12 *4116:D_N 4.66108e-05
22 *279:18 *4109:A 2.07184e-05
23 *279:18 *4111:B 0.000189845
24 *279:18 *281:43 7.06865e-05
25 *279:18 *282:43 1.16578e-05
26 *4113:C *4114:D_N 0.00013264
27 *4118:D *4114:D_N 4.82863e-05
28 *4121:B *4114:D_N 0.000100536
29 *4121:C *4114:D_N 0
30 *4122:B1_N *4581:A 0.000259718
31 *4248:A2 *4581:A 6.20088e-05
32 *4248:B1 *4581:A 0.000424699
33 *4249:B1 *4581:A 2.87867e-05
34 *4551:A *4106:C 3.67779e-05
35 *4551:A *4114:D_N 0
36 *4551:A *279:18 0
37 *200:25 *4581:A 4.61744e-05
*RES
1 *4381:Q *279:4 1.6 
2 *279:4 *279:8 3.915 
3 *279:8 *279:12 3.83 
4 *279:12 *279:18 4.955 
5 *279:18 *4106:C 9.755 
6 *279:18 *4116:B 1.6 
7 *279:12 *4114:D_N 7.98 
8 *279:8 *4111:C 1.96 
9 *279:4 *4581:A 12.725 
*END

*D_NET *280 0.00190066
*CONN
*I *4550:A I *D sky130_fd_sc_hd__dlygate4sd3_1
*I *4116:C_N I *D sky130_fd_sc_hd__or4bb_1
*I *4382:Q O *D sky130_fd_sc_hd__dfxtp_1
*CAP
1 *4550:A 0
2 *4116:C_N 0.000194575
3 *4382:Q 0.000269736
4 *280:12 0.000464312
5 *4116:C_N *4111:A 9.45649e-05
6 *4116:C_N *4111:B 8.23457e-05
7 *4116:C_N *4116:D_N 4.66108e-05
8 *4116:C_N *281:23 0.000200412
9 *4116:C_N *281:43 0.000155928
10 *4116:C_N *480:32 0
11 *280:12 *4105:B 0.000222561
12 *4250:A2 *280:12 8.49205e-05
13 *4252:C *280:12 0
14 *134:24 *4116:C_N 0
15 *200:29 *280:12 6.55328e-05
16 *279:12 *4116:C_N 1.91597e-05
*RES
1 *4382:Q *280:12 11.225 
2 *280:12 *4116:C_N 10.58 
3 *280:12 *4550:A 1.6 
*END

*D_NET *281 0.00428534
*CONN
*I *4109:A I *D sky130_fd_sc_hd__nand2_1
*I *4116:D_N I *D sky130_fd_sc_hd__or4bb_1
*I *4115:C I *D sky130_fd_sc_hd__or4b_1
*I *4106:A_N I *D sky130_fd_sc_hd__nand4b_1
*I *4468:A I *D sky130_fd_sc_hd__dlygate4sd3_1
*I *4383:Q O *D sky130_fd_sc_hd__dfxtp_1
*CAP
1 *4109:A 0.000121315
2 *4116:D_N 3.1193e-05
3 *4115:C 0
4 *4106:A_N 6.16518e-05
5 *4468:A 0
6 *4383:Q 0.000329111
7 *281:43 0.000239273
8 *281:27 8.96278e-05
9 *281:23 0.000444498
10 *281:10 0.000658868
11 *4106:A_N *4106:D 6.44535e-05
12 *4106:A_N *283:75 0.000238919
13 *4106:A_N *284:16 6.32842e-05
14 *4109:A *4111:A 2.97004e-06
15 *4109:A *480:32 0
16 *4116:D_N *4111:B 2.16833e-05
17 *281:10 *385:12 9.49203e-05
18 *281:10 *434:20 3.50763e-05
19 *281:23 *282:19 0
20 *281:23 *282:43 0
21 *281:23 *385:12 4.18603e-06
22 *281:27 *4111:A 0.000163199
23 *281:27 *4111:D_N 0.000151541
24 *281:27 *283:75 4.99619e-05
25 *281:27 *284:16 1.12578e-05
26 *281:43 *4111:A 7.21296e-06
27 *281:43 *282:43 0
28 *4113:C *4109:A 7.4027e-05
29 *4114:D_N *4109:A 9.54469e-05
30 *4116:C_N *4116:D_N 4.66108e-05
31 *4116:C_N *281:23 0.000200412
32 *4116:C_N *281:43 0.000155928
33 *4121:A *4109:A 0.000117814
34 *4122:B1_N *4109:A 7.26481e-05
35 *4257:A2 *281:10 0.000231564
36 *4257:A2 *281:23 0.000219692
37 *4383:CLK *281:23 0
38 *105:8 *281:23 4.89727e-05
39 *134:24 *281:23 0
40 *260:75 *281:23 0
41 *279:12 *4116:D_N 4.66108e-05
42 *279:18 *4109:A 2.07184e-05
43 *279:18 *281:43 7.06865e-05
*RES
1 *4383:Q *281:10 9.12 
2 *281:10 *4468:A 3.6 
3 *281:10 *281:23 7.035 
4 *281:23 *281:27 3.83 
5 *281:27 *4106:A_N 4.135 
6 *281:27 *4115:C 1.6 
7 *281:23 *281:43 2.145 
8 *281:43 *4116:D_N 4.395 
9 *281:43 *4109:A 6.945 
*END

*D_NET *282 0.00289886
*CONN
*I *4111:B I *D sky130_fd_sc_hd__or4b_1
*I *4116:A I *D sky130_fd_sc_hd__or4bb_1
*I *4115:D_N I *D sky130_fd_sc_hd__or4b_1
*I *4106:D I *D sky130_fd_sc_hd__nand4b_1
*I *4465:A I *D sky130_fd_sc_hd__dlygate4sd3_1
*I *4384:Q O *D sky130_fd_sc_hd__dfxtp_1
*CAP
1 *4111:B 0.00014939
2 *4116:A 3.55506e-05
3 *4115:D_N 0
4 *4106:D 5.23752e-05
5 *4465:A 0.000100541
6 *4384:Q 0.000133003
7 *282:43 0.000335262
8 *282:21 5.23752e-05
9 *282:19 0.000492457
10 *282:6 0.000575678
11 *4106:D *283:75 1.61831e-05
12 *4106:D *284:16 0.000124895
13 *4465:A *4256:A 6.96579e-05
14 *282:6 *4256:A 8.88523e-06
15 *282:19 *4106:B 0
16 *282:19 *4257:A1 5.02217e-05
17 *4106:A_N *4106:D 6.44535e-05
18 *4106:C *282:43 0.0001249
19 *4116:C_N *4111:B 8.23457e-05
20 *4116:D_N *4111:B 2.16833e-05
21 *4121:B *4111:B 4.40446e-05
22 *4121:B *282:43 3.07153e-05
23 *4466:A *282:19 0
24 *4551:A *282:43 4.94404e-05
25 *105:8 *282:19 0
26 *105:14 *282:19 0
27 *260:12 *282:19 5.51158e-05
28 *279:12 *4111:B 2.8185e-05
29 *279:18 *4111:B 0.000189845
30 *279:18 *282:43 1.16578e-05
31 *281:23 *282:19 0
32 *281:23 *282:43 0
33 *281:43 *282:43 0
*RES
1 *4384:Q *282:6 3.085 
2 *282:6 *4465:A 3.7 
3 *282:6 *282:19 7.46 
4 *282:19 *282:21 2 
5 *282:21 *4106:D 3.46 
6 *282:21 *4115:D_N 1.6 
7 *282:19 *282:43 5.03 
8 *282:43 *4116:A 2.215 
9 *282:43 *4111:B 5.17 
*END

*D_NET *283 0.00692268
*CONN
*I *4111:D_N I *D sky130_fd_sc_hd__or4b_1
*I *4115:B I *D sky130_fd_sc_hd__or4b_1
*I *4107:C I *D sky130_fd_sc_hd__or4b_1
*I *4265:C I *D sky130_fd_sc_hd__and4_1
*I *4120:D_N I *D sky130_fd_sc_hd__or4b_1
*I *4262:B I *D sky130_fd_sc_hd__and3_1
*I *4509:A I *D sky130_fd_sc_hd__dlygate4sd3_1
*I *4385:Q O *D sky130_fd_sc_hd__dfxtp_1
*CAP
1 *4111:D_N 0.000209588
2 *4115:B 2.08101e-05
3 *4107:C 2.08101e-05
4 *4265:C 0
5 *4120:D_N 0.000198683
6 *4262:B 0.0001597
7 *4509:A 0
8 *4385:Q 0.000124271
9 *283:75 0.000697795
10 *283:58 0.000805293
11 *283:49 0.000317086
12 *283:34 0.000314991
13 *283:23 0.00056028
14 *283:10 0.000408543
15 *4111:D_N *4111:A 6.1357e-05
16 *4111:D_N *480:32 7.21296e-06
17 *4120:D_N *4265:B 3.05646e-05
18 *4120:D_N *286:6 5.05437e-05
19 *4120:D_N *419:12 0
20 *283:23 *4263:A1 0
21 *283:23 *4386:D 4.72538e-05
22 *283:23 *410:14 9.31901e-05
23 *283:34 *4265:B 0.000235001
24 *283:34 *410:14 8.53113e-06
25 *283:58 *4107:D_N 2.16917e-05
26 *283:58 *4266:A1 0.000113237
27 *283:58 *376:6 0.000122331
28 *283:75 *4107:A 4.99619e-05
29 *283:75 *284:16 8.87196e-05
30 *283:75 *284:49 0.000119504
31 *4106:A_N *283:75 0.000238919
32 *4106:C *283:75 0
33 *4106:D *283:75 1.61831e-05
34 *4118:C *4111:D_N 0.000487734
35 *4121:D *283:58 5.41594e-05
36 *4121:D *283:75 4.10196e-05
37 *4260:A2 *283:10 2.66852e-05
38 *4260:A2 *283:23 4.18603e-06
39 *4265:D *283:34 0
40 *4266:A2 *4262:B 0.000235573
41 *4269:B1 *4120:D_N 0
42 *4384:CLK *283:10 3.09179e-05
43 *4386:CLK *283:23 3.05373e-05
44 *4495:A *283:23 4.35087e-05
45 *4495:A *283:34 3.60648e-05
46 *4551:A *283:75 0.000143159
47 *134:24 *4111:D_N 9.24127e-05
48 *140:108 *283:23 0
49 *207:19 *283:10 2.46089e-05
50 *207:36 *283:23 0
51 *213:49 *4120:D_N 0.000181376
52 *260:24 *283:10 7.55313e-05
53 *260:24 *283:23 5.99925e-05
54 *260:37 *283:10 1.16578e-05
55 *281:27 *4111:D_N 0.000151541
56 *281:27 *283:75 4.99619e-05
*RES
1 *4385:Q *283:10 6.03 
2 *283:10 *4509:A 3.6 
3 *283:10 *283:23 5.595 
4 *283:23 *4262:B 5.775 
5 *283:23 *283:34 2.91 
6 *283:34 *4120:D_N 7.755 
7 *283:34 *283:49 2 
8 *283:49 *4265:C 1.6 
9 *283:49 *283:58 4.26 
10 *283:58 *4107:C 1.96 
11 *283:58 *283:75 13.84 
12 *283:75 *4115:B 1.96 
13 *283:75 *4111:D_N 11.735 
*END

*D_NET *284 0.00481662
*CONN
*I *4107:B I *D sky130_fd_sc_hd__or4b_1
*I *4120:C I *D sky130_fd_sc_hd__or4b_1
*I *4494:A I *D sky130_fd_sc_hd__dlygate4sd3_1
*I *4111:A I *D sky130_fd_sc_hd__or4b_1
*I *4115:A I *D sky130_fd_sc_hd__or4b_1
*I *4386:Q O *D sky130_fd_sc_hd__dfxtp_1
*CAP
1 *4107:B 0
2 *4120:C 0.00028224
3 *4494:A 0
4 *4111:A 0.000222622
5 *4115:A 0
6 *4386:Q 0.000168118
7 *284:49 0.000532122
8 *284:36 0.000286995
9 *284:16 0.000753379
10 *284:10 0.000735987
11 *4111:A *480:32 0.000109884
12 *4120:C *4107:D_N 0
13 *4120:C *4112:B 1.19928e-05
14 *4120:C *285:38 0.00012153
15 *4120:C *286:6 1.83756e-05
16 *4120:C *286:8 1.49498e-05
17 *4120:C *286:25 0
18 *284:36 *4106:B 0
19 *284:49 *4107:A 4.13171e-05
20 *4106:A_N *284:16 6.32842e-05
21 *4106:C *284:36 0
22 *4106:C *284:49 0
23 *4106:D *284:16 0.000124895
24 *4109:A *4111:A 2.97004e-06
25 *4111:D_N *4111:A 6.1357e-05
26 *4112:D_N *4120:C 4.82863e-05
27 *4116:C_N *4111:A 9.45649e-05
28 *4121:D *4120:C 9.36031e-05
29 *4121:D *284:49 6.26945e-05
30 *140:100 *4120:C 0
31 *140:100 *284:49 0.000250623
32 *140:108 *284:10 7.4027e-05
33 *140:108 *284:36 6.54163e-05
34 *140:108 *284:49 0.000155176
35 *260:20 *284:10 2.17886e-05
36 *275:18 *4120:C 8.53113e-06
37 *281:27 *4111:A 0.000163199
38 *281:27 *284:16 1.12578e-05
39 *281:43 *4111:A 7.21296e-06
40 *283:75 *284:16 8.87196e-05
41 *283:75 *284:49 0.000119504
*RES
1 *4386:Q *284:10 5.955 
2 *284:10 *284:16 8.93 
3 *284:16 *4115:A 1.6 
4 *284:16 *4111:A 10.52 
5 *284:10 *284:36 0.87 
6 *284:36 *4494:A 3.6 
7 *284:36 *284:49 7.835 
8 *284:49 *4120:C 10.685 
9 *284:49 *4107:B 1.6 
*END

*D_NET *285 0.00381952
*CONN
*I *4112:C I *D sky130_fd_sc_hd__or4b_1
*I *4117:B I *D sky130_fd_sc_hd__or4bb_1
*I *4107:A I *D sky130_fd_sc_hd__or4b_1
*I *4120:B I *D sky130_fd_sc_hd__or4b_1
*I *4459:A I *D sky130_fd_sc_hd__dlygate4sd3_1
*I *4387:Q O *D sky130_fd_sc_hd__dfxtp_1
*CAP
1 *4112:C 0
2 *4117:B 0.000192099
3 *4107:A 0.000103916
4 *4120:B 0
5 *4459:A 0
6 *4387:Q 0.000171381
7 *285:44 0.000399431
8 *285:38 0.000220157
9 *285:23 0.000511622
10 *285:10 0.000566262
11 *285:23 *286:6 0.000460265
12 *285:38 *4107:D_N 5.16418e-05
13 *285:38 *4112:B 0.00015896
14 *285:38 *286:6 1.08758e-05
15 *285:44 *4112:B 4.00541e-06
16 *285:44 *286:8 0
17 *4104:C *4117:B 2.59981e-05
18 *4104:C *285:44 8.65905e-05
19 *4104:D_N *285:44 1.46828e-05
20 *4108:D *4107:A 0
21 *4112:D_N *285:38 1.46828e-05
22 *4113:D *4117:B 9.54399e-05
23 *4118:D *4117:B 9.5433e-05
24 *4119:D_N *4117:B 0
25 *4120:C *285:38 0.00012153
26 *4121:D *4107:A 4.82863e-05
27 *4121:D *285:38 8.53113e-06
28 *4267:A *285:10 0
29 *4267:A *285:23 0
30 *4269:B1 *285:10 6.55328e-05
31 *4269:B1 *285:23 7.63125e-05
32 *140:100 *4107:A 3.18137e-05
33 *140:100 *4117:B 6.08902e-05
34 *213:19 *285:23 0
35 *274:20 *4117:B 2.31298e-05
36 *275:18 *285:38 8.8266e-05
37 *275:18 *285:44 2.05056e-05
38 *283:75 *4107:A 4.99619e-05
39 *284:49 *4107:A 4.13171e-05
*RES
1 *4387:Q *285:10 6.12 
2 *285:10 *4459:A 3.6 
3 *285:10 *285:23 7.88 
4 *285:23 *4120:B 1.6 
5 *285:23 *285:38 7.24 
6 *285:38 *285:44 3.845 
7 *285:44 *4107:A 5.94 
8 *285:44 *4117:B 7.665 
9 *285:38 *4112:C 1.6 
*END

*D_NET *286 0.00451816
*CONN
*I *4112:B I *D sky130_fd_sc_hd__or4b_1
*I *4120:A I *D sky130_fd_sc_hd__or4b_1
*I *4502:A I *D sky130_fd_sc_hd__dlygate4sd3_1
*I *4117:C_N I *D sky130_fd_sc_hd__or4bb_1
*I *4274:C I *D sky130_fd_sc_hd__and4_1
*I *4271:B I *D sky130_fd_sc_hd__and3_1
*I *4107:D_N I *D sky130_fd_sc_hd__or4b_1
*I *4388:Q O *D sky130_fd_sc_hd__dfxtp_1
*CAP
1 *4112:B 8.92045e-05
2 *4120:A 0
3 *4502:A 0
4 *4117:C_N 9.79047e-05
5 *4274:C 0.000176346
6 *4271:B 0
7 *4107:D_N 0.000149458
8 *4388:Q 0.000253803
9 *286:31 0.000331955
10 *286:25 0.000347149
11 *286:10 0.000243093
12 *286:8 3.13807e-05
13 *286:6 0.000374388
14 *4107:D_N *4265:B 5.56629e-05
15 *4107:D_N *4266:A1 0.000124895
16 *4107:D_N *376:6 4.99619e-05
17 *4274:C *4274:B 0.000139245
18 *286:6 *4269:A1 2.81942e-05
19 *4120:C *4107:D_N 0
20 *4120:C *4112:B 1.19928e-05
21 *4120:C *286:6 1.83756e-05
22 *4120:C *286:8 1.49498e-05
23 *4120:C *286:25 0
24 *4120:D_N *286:6 5.05437e-05
25 *4121:D *4107:D_N 0.000187656
26 *4268:B *286:6 4.60584e-05
27 *4269:A2 *286:6 4.82919e-05
28 *4269:B1 *286:6 0.000201503
29 *4274:D *4274:C 0.000305914
30 *4275:A2 *4274:C 0
31 *4477:A *4274:C 0
32 *140:100 *4107:D_N 0
33 *213:49 *4107:D_N 8.34348e-05
34 *213:49 *4274:C 0.000120881
35 *213:49 *286:25 8.68724e-05
36 *213:49 *286:31 0.000141606
37 *215:10 *4274:C 0
38 *215:10 *286:31 0
39 *217:10 *4274:C 0
40 *275:18 *286:25 0
41 *283:58 *4107:D_N 2.16917e-05
42 *285:23 *286:6 0.000460265
43 *285:38 *4107:D_N 5.16418e-05
44 *285:38 *4112:B 0.00015896
45 *285:38 *286:6 1.08758e-05
46 *285:44 *4112:B 4.00541e-06
47 *285:44 *286:8 0
*RES
1 *4388:Q *286:6 8.26 
2 *286:6 *286:8 0.615 
3 *286:8 *286:10 2 
4 *286:10 *4107:D_N 7.83 
5 *286:10 *286:25 3.89 
6 *286:25 *286:31 4.775 
7 *286:31 *4271:B 3.6 
8 *286:31 *4274:C 8.55 
9 *286:25 *4117:C_N 3.085 
10 *286:25 *4502:A 1.6 
11 *286:8 *4120:A 1.6 
12 *286:6 *4112:B 3.445 
*END

*D_NET *287 0.00182336
*CONN
*I *4536:A I *D sky130_fd_sc_hd__dlygate4sd3_1
*I *4124:A2 I *D sky130_fd_sc_hd__a221o_1
*I *4394:Q O *D sky130_fd_sc_hd__dfxtp_1
*CAP
1 *4536:A 0.000219231
2 *4124:A2 0
3 *4394:Q 0.000217594
4 *287:14 0.000436825
5 *4536:A *4124:A1 0.00022027
6 *287:14 *4124:A1 2.91399e-05
7 *287:14 *4124:B2 2.97004e-06
8 *287:14 *450:8 0
9 *4394:CLK *287:14 1.67266e-05
10 *4522:A *4536:A 4.99619e-05
11 *97:22 *4536:A 0.000124007
12 *100:338 *4536:A 0.000409427
13 *100:338 *287:14 1.02931e-05
14 *140:18 *287:14 0
15 *140:38 *287:14 0
16 *259:160 *4536:A 8.69182e-05
*RES
1 *4394:Q *287:14 8.6525 
2 *287:14 *4124:A2 1.6 
3 *287:14 *4536:A 8.0875 
*END

*D_NET *288 0.00168572
*CONN
*I *4559:A I *D sky130_fd_sc_hd__dlygate4sd3_1
*I *4395:Q O *D sky130_fd_sc_hd__dfxtp_2
*CAP
1 *4559:A 0.000502513
2 *4395:Q 0.000502513
3 *4559:A *4231:A1 0.000238137
4 *4559:A *4231:B1 7.39917e-05
5 *4559:A *488:47 8.05681e-05
6 *4208:B *4559:A 3.09164e-05
7 *4230:B *4559:A 0
8 *4375:D *4559:A 0.000137571
9 *4450:A *4559:A 2.11084e-05
10 *188:10 *4559:A 2.46089e-05
11 *188:21 *4559:A 3.686e-05
12 *188:32 *4559:A 3.69334e-05
*RES
1 *4395:Q *4559:A 17.865 
*END

*D_NET *289 0.000357841
*CONN
*I *4440:A I *D sky130_fd_sc_hd__dlygate4sd3_1
*I *4396:Q O *D sky130_fd_sc_hd__dfxtp_2
*CAP
1 *4440:A 7.46968e-05
2 *4396:Q 7.46968e-05
3 *4440:A *373:257 6.47594e-05
4 *4440:A *460:25 0.000116165
5 *4440:A *488:20 2.75229e-05
*RES
1 *4396:Q *4440:A 9.03 
*END

*D_NET *290 0.0101596
*CONN
*I *4531:A I *D sky130_fd_sc_hd__dlygate4sd3_1
*I *4124:B2 I *D sky130_fd_sc_hd__a221o_1
*I *4192:A I *D sky130_fd_sc_hd__or2_1
*I *4397:Q O *D sky130_fd_sc_hd__dfxtp_4
*CAP
1 *4531:A 0
2 *4124:B2 0.000189707
3 *4192:A 0.00208745
4 *4397:Q 0.000216627
5 *290:29 0.000410795
6 *290:8 0.00252516
7 *4124:B2 *373:222 0
8 *4192:A *4123:A 2.49909e-05
9 *4192:A *4192:B 1.85674e-05
10 *4192:A *4232:C 0.000157343
11 *4192:A *488:8 0.000390466
12 *4192:A *488:121 0.000153217
13 *290:8 *4152:B2 0.000116158
14 *290:29 *373:231 7.36562e-05
15 *290:29 *373:244 4.75576e-05
16 *4135:A1 *290:29 8.40213e-05
17 *4135:A2 *290:29 8.23457e-05
18 *4144:B *4124:B2 2.49708e-05
19 *4152:B1 *4192:A 1.17036e-05
20 *4152:B1 *290:8 0.00014173
21 *4152:B1 *290:29 7.63652e-05
22 *4193:C1 *4192:A 3.07153e-05
23 *4216:A2 *4192:A 0.000190633
24 *4368:D *4192:A 2.61299e-05
25 *4396:D *290:29 9.54399e-05
26 *4397:D *290:8 0
27 *4431:A *4192:A 8.23457e-05
28 *100:338 *4124:B2 1.12578e-05
29 *122:12 *4124:B2 0.000292066
30 *122:32 *4124:B2 0.000193571
31 *122:45 *4192:A 9.56308e-05
32 *122:54 *4192:A 7.03516e-05
33 *122:80 *4192:A 9.80032e-06
34 *140:38 *4124:B2 0
35 *178:10 *4192:A 4.82919e-05
36 *178:69 *4192:A 0.000769257
37 *259:164 *4192:A 0.000260898
38 *263:10 *290:8 3.68784e-05
39 *263:12 *290:8 5.38986e-06
40 *263:12 *290:29 0.000142455
41 *263:14 *290:29 0.000195238
42 *263:18 *4124:B2 0.000356583
43 *263:18 *290:29 0.000176647
44 *263:63 *290:8 6.99988e-05
45 *263:65 *290:8 0.000116563
46 *263:78 *290:8 4.76581e-05
47 *287:14 *4124:B2 2.97004e-06
*RES
1 *4397:Q *290:8 9.6975 
2 *290:8 *4192:A 39.3975 
3 *290:8 *290:29 9.3425 
4 *290:29 *4124:B2 11.81 
5 *290:29 *4531:A 1.6 
*END

*D_NET *291 0.000415658
*CONN
*I *4449:A I *D sky130_fd_sc_hd__dlygate4sd3_1
*I *4366:Q O *D sky130_fd_sc_hd__dfxtp_1
*CAP
1 *4449:A 0.000176391
2 *4366:Q 0.000176391
3 *4449:A *4210:A 0
4 *4460:A *4449:A 6.28765e-05
*RES
1 *4366:Q *4449:A 9.72 
*END

*D_NET *292 0.00184481
*CONN
*I *4560:A I *D sky130_fd_sc_hd__dlygate4sd3_1
*I *4213:A I *D sky130_fd_sc_hd__or2_1
*I *4367:Q O *D sky130_fd_sc_hd__dfxtp_1
*CAP
1 *4560:A 0.000274699
2 *4213:A 0.000398385
3 *4367:Q 0
4 *292:6 0.000673084
5 *4560:A *490:10 0
6 *4210:B *4213:A 0
7 *4210:B *4560:A 0
8 *4212:A2 *4213:A 0
9 *4212:B1 *4213:A 2.24423e-05
10 *4212:B1 *4560:A 2.87867e-05
11 *4216:A2 *4213:A 0.00011964
12 *4216:B1 *4213:A 0.000203231
13 *4216:C1 *4213:A 3.18137e-05
14 *4376:CLK *4560:A 0
15 *4548:A *4213:A 0
16 *4548:A *4560:A 0
17 *178:69 *4213:A 9.27326e-05
18 *178:86 *4213:A 0
19 *266:151 *4213:A 0
*RES
1 *4367:Q *292:6 3.6 
2 *292:6 *4213:A 11.355 
3 *292:6 *4560:A 8.16 
*END

*D_NET *293 0.000292794
*CONN
*I *4547:A I *D sky130_fd_sc_hd__dlygate4sd3_1
*I *4368:Q O *D sky130_fd_sc_hd__dfxtp_1
*CAP
1 *4547:A 0.000122251
2 *4368:Q 0.000122251
3 *4547:A *4197:A1 4.82919e-05
4 *4547:A *476:10 0
5 *4193:C1 *4547:A 0
*RES
1 *4368:Q *4547:A 9.03 
*END

*D_NET *294 0.000189331
*CONN
*I *4538:A I *D sky130_fd_sc_hd__dlygate4sd3_1
*I *4369:Q O *D sky130_fd_sc_hd__dfxtp_1
*CAP
1 *4538:A 6.09617e-05
2 *4369:Q 6.09617e-05
3 *4538:A *4218:A1 6.74079e-05
4 *4539:A *4538:A 0
*RES
1 *4369:Q *4538:A 8.58 
*END

*D_NET *295 0.000485734
*CONN
*I *4534:A I *D sky130_fd_sc_hd__dlygate4sd3_1
*I *4370:Q O *D sky130_fd_sc_hd__dfxtp_1
*CAP
1 *4534:A 8.50594e-05
2 *4370:Q 8.50594e-05
3 *4534:A *4201:A1 0
4 *4534:A *4218:A1 0
5 *4534:A *4219:A 7.35813e-05
6 *4534:A *460:179 0.000115464
7 *4534:A *468:14 0.00012657
*RES
1 *4370:Q *4534:A 9.72 
*END

*D_NET *296 0.000649395
*CONN
*I *4532:A I *D sky130_fd_sc_hd__dlygate4sd3_1
*I *4371:Q O *D sky130_fd_sc_hd__dfxtp_1
*CAP
1 *4532:A 0.000169209
2 *4371:Q 0.000169209
3 *4532:A *461:25 0
4 *4537:A *4532:A 0
5 *259:213 *4532:A 0.000284274
6 *266:12 *4532:A 2.67022e-05
*RES
1 *4371:Q *4532:A 10.62 
*END

*D_NET *297 0.00209644
*CONN
*I *4557:A I *D sky130_fd_sc_hd__dlygate4sd3_1
*I *4223:A I *D sky130_fd_sc_hd__or2_1
*I *4372:Q O *D sky130_fd_sc_hd__dfxtp_1
*CAP
1 *4557:A 0.000455911
2 *4223:A 9.07991e-05
3 *4372:Q 0
4 *297:4 0.00054671
5 *4557:A *4526:A 0.000118513
6 *4557:A *298:10 0.000141599
7 *4220:A2 *4557:A 0.000427088
8 *4224:C1 *4223:A 1.7386e-05
9 *266:22 *4557:A 0.000298435
*RES
1 *4372:Q *297:4 1.6 
2 *297:4 *4223:A 3.1 
3 *297:4 *4557:A 13.955 
*END

*D_NET *298 0.00152293
*CONN
*I *4526:A I *D sky130_fd_sc_hd__dlygate4sd3_1
*I *4225:A I *D sky130_fd_sc_hd__or2_1
*I *4373:Q O *D sky130_fd_sc_hd__dfxtp_1
*CAP
1 *4526:A 0.000145149
2 *4225:A 0
3 *4373:Q 0.000281001
4 *298:10 0.00042615
5 *4526:A *4372:D 0.000181582
6 *298:10 *4373:D 0
7 *4557:A *4526:A 0.000118513
8 *4557:A *298:10 0.000141599
9 *97:45 *298:10 0.000110691
10 *178:14 *4526:A 0
11 *266:22 *4526:A 2.34423e-05
12 *266:66 *4526:A 9.4804e-05
*RES
1 *4373:Q *298:10 8.1 
2 *298:10 *4225:A 3.6 
3 *298:10 *4526:A 7.53 
*END

*D_NET *299 0.000273338
*CONN
*I *4521:A I *D sky130_fd_sc_hd__dlygate4sd3_1
*I *4393:Q O *D sky130_fd_sc_hd__dfxtp_1
*CAP
1 *4521:A 0.000112523
2 *4393:Q 0.000112523
3 *4167:A2 *4521:A 0
4 *151:16 *4521:A 4.82919e-05
*RES
1 *4393:Q *4521:A 9.03 
*END

*D_NET *300 0.000114016
*CONN
*I *4437:A I *D sky130_fd_sc_hd__dlygate4sd3_1
*I *4398:Q O *D sky130_fd_sc_hd__dfxtp_1
*CAP
1 *4437:A 5.7008e-05
2 *4398:Q 5.7008e-05
*RES
1 *4398:Q *4437:A 4.01 
*END

*D_NET *301 0.00329593
*CONN
*I *4098:A I *D sky130_fd_sc_hd__inv_2
*I *4446:A I *D sky130_fd_sc_hd__dlygate4sd3_1
*I *4192:B I *D sky130_fd_sc_hd__or2_1
*I *4358:Q O *D sky130_fd_sc_hd__dfxtp_1
*CAP
1 *4098:A 0
2 *4446:A 0.000237314
3 *4192:B 0.000236172
4 *4358:Q 0.000133404
5 *301:27 0.000529973
6 *301:8 0.000662235
7 *4192:B *4194:A 2.75229e-05
8 *4446:A *4161:A1 7.08493e-05
9 *4446:A *4561:A 2.68016e-05
10 *301:8 *362:185 0
11 *301:8 *460:192 1.26626e-05
12 *301:8 *479:10 1.79098e-05
13 *301:8 *479:12 1.70935e-05
14 *301:27 *4178:A1 0.000116629
15 *301:27 *4561:A 2.68526e-05
16 *301:27 *362:170 0
17 *301:27 *460:192 0.00011741
18 *301:27 *479:12 7.53115e-05
19 led[5] *4446:A 4.9253e-06
20 *4153:A2 *301:27 4.77719e-05
21 *4192:A *4192:B 1.85674e-05
22 *4193:C1 *4192:B 4.9253e-06
23 *4195:C1 *301:8 0.000249234
24 *4197:C1 *4192:B 6.54766e-05
25 *4358:CLK *301:8 0.000139933
26 *134:83 *301:27 0.000100377
27 *267:59 *4446:A 0.000158297
28 *267:101 *4446:A 0.000198286
*RES
1 *4358:Q *301:8 7.275 
2 *301:8 *4192:B 7.62 
3 *301:8 *301:27 8.795 
4 *301:27 *4446:A 10.925 
5 *301:27 *4098:A 1.6 
*END

*D_NET *302 0.000496352
*CONN
*I *4566:A I *D sky130_fd_sc_hd__dlygate4sd3_1
*I *4359:Q O *D sky130_fd_sc_hd__dfxtp_1
*CAP
1 *4566:A 0.000248176
2 *4359:Q 0.000248176
3 *4566:A *4343:D 0
4 *4566:A *4549:A 0
5 *4566:A *495:10 0
6 *4585:A *4566:A 0
*RES
1 *4359:Q *4566:A 11.07 
*END

*D_NET *303 0.000313782
*CONN
*I *4549:A I *D sky130_fd_sc_hd__dlygate4sd3_1
*I *4360:Q O *D sky130_fd_sc_hd__dfxtp_1
*CAP
1 *4549:A 0.000123803
2 *4360:Q 0.000123803
3 *4549:A *495:10 6.61758e-05
4 *4566:A *4549:A 0
*RES
1 *4360:Q *4549:A 9.375 
*END

*D_NET *304 0.000781777
*CONN
*I *4561:A I *D sky130_fd_sc_hd__dlygate4sd3_1
*I *4361:Q O *D sky130_fd_sc_hd__dfxtp_1
*CAP
1 *4561:A 0.000158
2 *4361:Q 0.000158
3 *4561:A *4158:A1 1.91597e-05
4 *537:DIODE *4561:A 0.000120655
5 *4153:A2 *4561:A 0.000219294
6 *4446:A *4561:A 2.68016e-05
7 *134:83 *4561:A 4.86257e-05
8 *267:101 *4561:A 4.38721e-06
9 *301:27 *4561:A 2.68526e-05
*RES
1 *4361:Q *4561:A 11.19 
*END

*D_NET *305 0.00664734
*CONN
*I *4161:A1 I *D sky130_fd_sc_hd__a21o_1
*I *4555:A I *D sky130_fd_sc_hd__dlygate4sd3_1
*I *4200:B I *D sky130_fd_sc_hd__or2_1
*I *4362:Q O *D sky130_fd_sc_hd__dfxtp_1
*CAP
1 *4161:A1 0.000814713
2 *4555:A 0
3 *4200:B 0.000655607
4 *4362:Q 0.000531896
5 *305:16 0.000713987
6 *305:12 0.00140499
7 *4161:A1 *4530:A 2.92496e-05
8 *4161:A1 *4616:A 0.000421723
9 *4161:A1 *495:12 0
10 *4161:A1 *500:10 0.000160651
11 *4200:B *4184:A1 0.000237249
12 *4200:B *4201:A1 0
13 *4200:B *460:156 8.53113e-06
14 *4200:B *460:179 0.000183043
15 *4200:B *463:6 7.67415e-06
16 *4200:B *468:14 0.000275553
17 *305:12 *4158:C1 8.65905e-05
18 *305:12 *4362:D 0.000126084
19 *305:12 *362:164 2.66935e-05
20 *305:12 *460:179 0.000164874
21 led[5] *4161:A1 6.0147e-06
22 *4347:CLK *4161:A1 1.31297e-05
23 *4446:A *4161:A1 7.08493e-05
24 *4535:A *4200:B 0.0001249
25 *4556:A *4200:B 0
26 *4577:A *4161:A1 2.66935e-05
27 *100:263 *4161:A1 3.57924e-05
28 *133:147 *4161:A1 0.000355875
29 *259:64 *305:12 7.06865e-05
30 *267:8 *305:12 1.46828e-05
31 *267:12 *305:12 7.96098e-05
*RES
1 *4362:Q *305:12 12.785 
2 *305:12 *305:16 1.065 
3 *305:16 *4200:B 17.435 
4 *305:16 *4555:A 1.6 
5 *305:12 *4161:A1 18.17 
*END

*D_NET *306 0.00495732
*CONN
*I *4202:B I *D sky130_fd_sc_hd__or2_1
*I *4163:A1 I *D sky130_fd_sc_hd__a21o_1
*I *4579:A I *D sky130_fd_sc_hd__dlygate4sd3_1
*I *4363:Q O *D sky130_fd_sc_hd__dfxtp_1
*CAP
1 *4202:B 0
2 *4163:A1 0.000706223
3 *4579:A 7.91662e-05
4 *4363:Q 7.59451e-05
5 *306:24 0.00126591
6 *306:12 0.000556469
7 *4163:A1 *4179:A0 0.00028261
8 *4163:A1 *4180:B 8.65905e-05
9 *4163:A1 *4185:A1 0.000163199
10 *4163:A1 *4354:D 0.000388186
11 *4163:A1 *4356:D 3.66286e-05
12 *4163:A1 *4570:A 3.34652e-05
13 *4163:A1 *332:8 0.000200615
14 *4579:A *4184:C1 7.75412e-05
15 *4579:A *4187:A1 0
16 *306:24 *4202:A 3.54181e-05
17 *306:24 *4356:D 0.000168621
18 *4180:A *4163:A1 4.82863e-05
19 *4182:S *4163:A1 0.000124895
20 *4203:C1 *4579:A 4.70343e-05
21 *4203:C1 *306:24 9.38176e-05
22 *4205:A2 *306:24 0
23 *4354:CLK *4163:A1 4.52602e-05
24 *4558:A *306:24 0.000151724
25 *259:8 *306:12 2.75229e-05
26 *259:8 *306:24 1.34503e-05
27 *259:14 *306:12 2.86623e-05
28 *259:152 *306:12 5.84456e-05
29 *266:22 *306:12 0.00016163
*RES
1 *4363:Q *306:12 7.94 
2 *306:12 *306:24 8.985 
3 *306:24 *4579:A 7.745 
4 *306:24 *4163:A1 16.315 
5 *306:12 *4202:B 1.6 
*END

*D_NET *307 0.00672488
*CONN
*I *4204:B I *D sky130_fd_sc_hd__or2_1
*I *4189:A1 I *D sky130_fd_sc_hd__o211a_1
*I *4165:A1 I *D sky130_fd_sc_hd__a21o_1
*I *4364:Q O *D sky130_fd_sc_hd__dfxtp_1
*CAP
1 *4204:B 0.000384295
2 *4189:A1 0.00059769
3 *4165:A1 0.000562736
4 *4364:Q 0
5 *307:15 0.00119147
6 *307:4 0.00077222
7 *4189:A1 *4189:C1 4.66108e-05
8 *4189:A1 *4364:D 0
9 *4189:A1 *373:145 0
10 *4204:B *553:DIODE 0.000149765
11 *4204:B *554:DIODE 4.82863e-05
12 *4204:B *4202:A 0.000181376
13 *4204:B *460:126 4.60584e-05
14 *4204:B *460:133 0.000538549
15 *555:DIODE *4204:B 0.00012657
16 *4151:A2 *4189:A1 0
17 *4189:B1 *4189:A1 3.87054e-05
18 *4365:CLK *4165:A1 0.000617727
19 *4365:CLK *307:15 0.000151541
20 *4520:A *4189:A1 7.60965e-05
21 *100:79 *4189:A1 0
22 *100:90 *4189:A1 2.67184e-05
23 *133:23 *4165:A1 3.00381e-05
24 *133:42 *4165:A1 9.4262e-05
25 *259:14 *4189:A1 0.000620954
26 *259:14 *4204:B 0.00012904
27 *259:152 *4204:B 0.00013521
28 *266:22 *4204:B 0
29 *266:33 *307:15 0.00015896
*RES
1 *4364:Q *307:4 1.6 
2 *307:4 *4165:A1 9.295 
3 *307:4 *307:15 4.865 
4 *307:15 *4189:A1 15.45 
5 *307:15 *4204:B 13.155 
*END

*D_NET *308 0.00293378
*CONN
*I *4518:A I *D sky130_fd_sc_hd__dlygate4sd3_1
*I *4167:A1 I *D sky130_fd_sc_hd__a21o_1
*I *4365:Q O *D sky130_fd_sc_hd__dfxtp_1
*CAP
1 *4518:A 0
2 *4167:A1 0.000779943
3 *4365:Q 0.000161396
4 *308:10 0.00094134
5 *4167:A1 *4331:A1 8.3762e-05
6 *4167:A1 *4333:B 4.60584e-05
7 *4331:B1 *4167:A1 4.99619e-05
8 *4333:C *4167:A1 8.65961e-05
9 *4365:CLK *308:10 6.6925e-05
10 *4399:CLK *4167:A1 0.000210933
11 *4543:A *4167:A1 2.97473e-05
12 *133:42 *308:10 0.000163199
13 *252:33 *4167:A1 0.000310394
14 *252:37 *4167:A1 3.52139e-06
15 *259:14 *4167:A1 0
16 *259:14 *308:10 0
*RES
1 *4365:Q *308:10 6.975 
2 *308:10 *4167:A1 14.4 
3 *308:10 *4518:A 3.6 
*END

*D_NET *309 0.00265461
*CONN
*I *4137:D_N I *D sky130_fd_sc_hd__or4b_1
*I *4497:A I *D sky130_fd_sc_hd__dlygate4sd3_1
*I *4400:Q O *D sky130_fd_sc_hd__dfxtp_1
*CAP
1 *4137:D_N 0.000494172
2 *4497:A 6.47067e-05
3 *4400:Q 0.000528853
4 *309:6 0.00108773
5 *4137:D_N *4125:B 4.66826e-05
6 *309:6 *4400:D 8.84163e-05
7 *4293:A_N *4137:D_N 3.04704e-05
8 *4293:B *4137:D_N 1.57815e-05
9 *4400:CLK *4137:D_N 0.00018171
10 *4400:CLK *309:6 5.05521e-05
11 *228:8 *4497:A 6.55328e-05
12 *265:12 *4497:A 0
*RES
1 *4400:Q *309:6 7.57 
2 *309:6 *4497:A 6.98 
3 *309:6 *4137:D_N 7.93 
*END

*D_NET *310 0.0021514
*CONN
*I *4514:A I *D sky130_fd_sc_hd__dlygate4sd3_1
*I *4137:C I *D sky130_fd_sc_hd__or4b_1
*I *4125:B I *D sky130_fd_sc_hd__or4b_1
*I *4401:Q O *D sky130_fd_sc_hd__dfxtp_1
*CAP
1 *4514:A 0.00020784
2 *4137:C 0
3 *4125:B 0.000208548
4 *4401:Q 0
5 *310:14 0.000331323
6 *310:4 0.000330616
7 *4514:A *4295:A 0
8 *4514:A *4295:B 3.09164e-05
9 *310:14 *4137:A 4.89295e-05
10 *310:14 *4137:B 0.00016031
11 *310:14 *372:6 3.6355e-05
12 *4137:D_N *4125:B 4.66826e-05
13 *4293:A_N *4125:B 0.000121817
14 *4293:C *4125:B 0
15 *4294:B *4125:B 8.52883e-05
16 *4294:B *310:14 3.73067e-05
17 *4295:C *4514:A 4.43871e-06
18 *4296:C *4514:A 0
19 *4297:B *4514:A 3.09164e-05
20 *4297:B *310:14 0.000111149
21 *4402:CLK *4514:A 5.05437e-05
22 *4507:A *4125:B 0
23 *225:10 *4125:B 0.000218271
24 *225:33 *4514:A 2.97004e-06
25 *230:14 *310:14 0
26 *232:14 *4514:A 8.7177e-05
27 *265:12 *4125:B 0
*RES
1 *4401:Q *310:4 1.6 
2 *310:4 *310:14 7.225 
3 *310:14 *4125:B 10.085 
4 *310:14 *4137:C 1.6 
5 *310:4 *4514:A 9.305 
*END

*D_NET *311 0.00233676
*CONN
*I *4137:B I *D sky130_fd_sc_hd__or4b_1
*I *4506:A I *D sky130_fd_sc_hd__dlygate4sd3_1
*I *4402:Q O *D sky130_fd_sc_hd__dfxtp_1
*CAP
1 *4137:B 0.000350855
2 *4506:A 0
3 *4402:Q 0.000217042
4 *311:12 0.000567897
5 *4137:B *4125:A 0.000201503
6 *4137:B *4294:A 0.000236977
7 *4137:B *372:6 8.69098e-05
8 *4137:B *422:6 3.74161e-05
9 *311:12 *4403:D 0
10 *527:DIODE *4137:B 1.61831e-05
11 *4294:B *4137:B 2.26018e-05
12 *4296:C *4137:B 0.000376187
13 *4513:A *311:12 6.28765e-05
14 *310:14 *4137:B 0.00016031
*RES
1 *4402:Q *311:12 8.465 
2 *311:12 *4506:A 1.6 
3 *311:12 *4137:B 10.8625 
*END

*D_NET *312 0.0001889
*CONN
*I *4456:A I *D sky130_fd_sc_hd__dlygate4sd3_1
*I *4403:Q O *D sky130_fd_sc_hd__dfxtp_1
*CAP
1 *4456:A 7.13669e-05
2 *4403:Q 7.13669e-05
3 *4456:A *4125:A 0
4 *574:DIODE *4456:A 4.61658e-05
*RES
1 *4403:Q *4456:A 8.58 
*END

*D_NET *313 0.0008299
*CONN
*I *4511:A I *D sky130_fd_sc_hd__dlygate4sd3_1
*I *4404:Q O *D sky130_fd_sc_hd__dfxtp_1
*CAP
1 *4511:A 0.000185997
2 *4404:Q 0.000185997
3 *4511:A *427:12 0.000239813
4 *4288:A2 *4511:A 0
5 *130:55 *4511:A 6.60261e-06
6 *226:6 *4511:A 0.000163199
7 *226:21 *4511:A 4.82919e-05
8 *234:8 *4511:A 0
*RES
1 *4404:Q *4511:A 11.205 
*END

*D_NET *314 0.000369395
*CONN
*I *4544:A I *D sky130_fd_sc_hd__dlygate4sd3_1
*I *4414:Q O *D sky130_fd_sc_hd__dfxtp_1
*CAP
1 *4544:A 0.000170833
2 *4414:Q 0.000170833
3 *4488:A *4544:A 0
4 *144:138 *4544:A 2.77283e-05
*RES
1 *4414:Q *4544:A 9.63 
*END

*D_NET *315 0.000713503
*CONN
*I *4542:A I *D sky130_fd_sc_hd__dlygate4sd3_1
*I *4415:Q O *D sky130_fd_sc_hd__dfxtp_1
*CAP
1 *4542:A 0.000356752
2 *4415:Q 0.000356752
3 *4542:A *471:51 0
4 *4330:B1 *4542:A 0
*RES
1 *4415:Q *4542:A 11.445 
*END

*D_NET *316 0.00203142
*CONN
*I *4487:A I *D sky130_fd_sc_hd__dlygate4sd3_1
*I *4335:A1 I *D sky130_fd_sc_hd__a31o_1
*I *4416:Q O *D sky130_fd_sc_hd__dfxtp_1
*CAP
1 *4487:A 0.000581766
2 *4335:A1 8.21442e-05
3 *4416:Q 0.000112812
4 *316:6 0.000776722
5 *4335:A1 *4334:B 0
6 *4335:A1 *471:12 2.66852e-05
7 *4487:A *4332:A1 4.38278e-05
8 *4487:A *4332:B1 3.95409e-05
9 *4487:A *4416:D 5.36069e-06
10 *4487:A *4417:D 0.000163992
11 *4487:A *350:14 0
12 *316:6 *4332:A1 6.6925e-05
13 *4336:B1 *4487:A 0
14 *4416:CLK *4487:A 3.72916e-05
15 *4489:A *4335:A1 7.06865e-05
16 *264:88 *4487:A 2.36616e-05
*RES
1 *4416:Q *316:6 3.085 
2 *316:6 *4335:A1 7.235 
3 *316:6 *4487:A 13.535 
*END

*D_NET *317 0.000645248
*CONN
*I *4603:A I *D sky130_fd_sc_hd__dlygate4sd3_1
*I *4417:Q O *D sky130_fd_sc_hd__dfxtp_1
*CAP
1 *4603:A 0.000100486
2 *4417:Q 0.000100486
3 *4603:A *373:74 0.000207783
4 *100:106 *4603:A 3.03775e-05
5 *144:10 *4603:A 0.000206116
*RES
1 *4417:Q *4603:A 10.395 
*END

*D_NET *318 0.000177155
*CONN
*I *4515:A I *D sky130_fd_sc_hd__dlygate4sd3_1
*I *4405:Q O *D sky130_fd_sc_hd__dfxtp_1
*CAP
1 *4515:A 6.40178e-05
2 *4405:Q 6.40178e-05
3 *234:64 *4515:A 4.91189e-05
*RES
1 *4405:Q *4515:A 8.58 
*END

*D_NET *319 0.000656347
*CONN
*I *4472:A I *D sky130_fd_sc_hd__dlygate4sd3_1
*I *4406:Q O *D sky130_fd_sc_hd__dfxtp_1
*CAP
1 *4472:A 9.18166e-05
2 *4406:Q 9.18166e-05
3 *4472:A *446:10 0.000164287
4 *4309:C1 *4472:A 8.53113e-06
5 *144:24 *4472:A 3.09233e-05
6 *144:26 *4472:A 0.000268973
*RES
1 *4406:Q *4472:A 10.62 
*END

*D_NET *320 0.000332028
*CONN
*I *4605:A I *D sky130_fd_sc_hd__dlygate4sd3_1
*I *4407:Q O *D sky130_fd_sc_hd__dfxtp_1
*CAP
1 *4605:A 5.02065e-05
2 *4407:Q 5.02065e-05
3 *4605:A *4309:B1 9.30717e-05
4 *4605:A *353:29 0.000138544
5 *264:41 *4605:A 0
*RES
1 *4407:Q *4605:A 8.835 
*END

*D_NET *321 0.000222357
*CONN
*I *4490:A I *D sky130_fd_sc_hd__dlygate4sd3_1
*I *4408:Q O *D sky130_fd_sc_hd__dfxtp_1
*CAP
1 *4490:A 0.000111178
2 *4408:Q 0.000111178
*RES
1 *4408:Q *4490:A 4.955 
*END

*D_NET *322 0.000521998
*CONN
*I *4587:A I *D sky130_fd_sc_hd__dlygate4sd3_1
*I *4409:Q O *D sky130_fd_sc_hd__dfxtp_1
*CAP
1 *4587:A 0.000260999
2 *4409:Q 0.000260999
3 *4587:A *4409:D 0
4 *4318:A *4587:A 0
5 *242:48 *4587:A 0
*RES
1 *4409:Q *4587:A 11.07 
*END

*D_NET *323 0.000257067
*CONN
*I *4590:A I *D sky130_fd_sc_hd__dlygate4sd3_1
*I *4410:Q O *D sky130_fd_sc_hd__dfxtp_1
*CAP
1 *4590:A 3.72377e-05
2 *4410:Q 3.72377e-05
3 *4408:CLK *4590:A 6.47594e-05
4 *4591:A *4590:A 0.000117832
*RES
1 *4410:Q *4590:A 8.58 
*END

*D_NET *324 0.00132905
*CONN
*I *4523:A I *D sky130_fd_sc_hd__dlygate4sd3_1
*I *4411:Q O *D sky130_fd_sc_hd__dfxtp_1
*CAP
1 *4523:A 0.000528985
2 *4411:Q 0.000528985
3 *4523:A *4411:D 0.00024356
4 *4411:CLK *4523:A 2.75229e-05
*RES
1 *4411:Q *4523:A 9.785 
*END

*D_NET *325 0.00107324
*CONN
*I *4528:A I *D sky130_fd_sc_hd__dlygate4sd3_1
*I *4412:Q O *D sky130_fd_sc_hd__dfxtp_1
*CAP
1 *4528:A 0.000282648
2 *4412:Q 0.000282648
3 *4168:B1 *4528:A 0.000507942
*RES
1 *4412:Q *4528:A 13.17 
*END

*D_NET *326 0.00140247
*CONN
*I *4327:B I *D sky130_fd_sc_hd__and4_2
*I *4500:A I *D sky130_fd_sc_hd__dlygate4sd3_1
*I *4413:Q O *D sky130_fd_sc_hd__dfxtp_1
*CAP
1 *4327:B 4.52836e-05
2 *4500:A 9.13255e-05
3 *4413:Q 0.000196813
4 *326:8 0.000333422
5 *4327:B *4327:A 5.53249e-06
6 *4327:B *4327:C 4.17687e-05
7 *4327:B *458:14 9.8657e-05
8 *4500:A *4413:D 9.54399e-05
9 *4500:A *458:14 6.87509e-05
10 *4500:A *458:20 2.60908e-05
11 *326:8 *4324:B1 0.000109836
12 *4327:D *4327:B 7.26588e-05
13 *4327:D *4500:A 0.000184307
14 *4335:A3 *4327:B 0
15 *247:60 *4500:A 3.25831e-05
*RES
1 *4413:Q *326:8 6.12 
2 *326:8 *4500:A 6.81 
3 *326:8 *4327:B 5.235 
*END

*D_NET *327 0.00158146
*CONN
*I *4170:A1 I *D sky130_fd_sc_hd__mux2_1
*I *4480:A I *D sky130_fd_sc_hd__dlygate4sd3_1
*I *4351:Q O *D sky130_fd_sc_hd__dfxtp_1
*CAP
1 *4170:A1 0
2 *4480:A 0.000233023
3 *4351:Q 0.000149332
4 *327:8 0.000382355
5 *4480:A *4170:A0 1.5996e-05
6 *4480:A *4337:A1 0.000120407
7 *4480:A *4337:B2 0.000159403
8 *4480:A *362:47 2.87713e-05
9 *327:8 *4170:A0 2.68464e-05
10 *4171:B *327:8 4.99619e-05
11 *4175:A2 *327:8 9.12016e-05
12 *4483:A *4480:A 0.000324167
13 *259:53 *4480:A 0
14 *259:64 *4480:A 0
*RES
1 *4351:Q *327:8 4.48 
2 *327:8 *4480:A 11.405 
3 *327:8 *4170:A1 1.6 
*END

*D_NET *328 0.00170729
*CONN
*I *4599:A I *D sky130_fd_sc_hd__dlygate4sd3_1
*I *4352:Q O *D sky130_fd_sc_hd__dfxtp_1
*CAP
1 *4599:A 0.000446246
2 *4352:Q 0.000446246
3 *4599:A *4175:B1 0.000175358
4 *4599:A *4575:A 0
5 *4599:A *346:10 4.66108e-05
6 *4599:A *373:48 5.71105e-05
7 *4599:A *495:12 0.000402743
8 led[3] *4599:A 0.000132977
9 *153:55 *4599:A 0
*RES
1 *4352:Q *4599:A 16.245 
*END

*D_NET *329 0.00109429
*CONN
*I *4575:A I *D sky130_fd_sc_hd__dlygate4sd3_1
*I *4353:Q O *D sky130_fd_sc_hd__dfxtp_1
*CAP
1 *4575:A 0.000242884
2 *4353:Q 0.000242884
3 *4575:A *4174:B 7.08554e-05
4 *4575:A *4177:B 0
5 *4575:A *4614:A 0.000121469
6 *4575:A *346:10 0.000180682
7 *4575:A *495:12 0
8 *4599:A *4575:A 0
9 *4601:A *4575:A 0.000121023
10 *153:55 *4575:A 0.000114492
*RES
1 *4353:Q *4575:A 12.555 
*END

*D_NET *330 0.00117345
*CONN
*I *4570:A I *D sky130_fd_sc_hd__dlygate4sd3_1
*I *4354:Q O *D sky130_fd_sc_hd__dfxtp_1
*CAP
1 *4570:A 0.000427475
2 *4354:Q 0.000427475
3 *4570:A *4177:B 0
4 *4163:A1 *4570:A 3.34652e-05
5 *4163:B1 *4570:A 3.04704e-05
6 *4164:B1 *4570:A 0.000195432
7 *267:65 *4570:A 5.91331e-05
*RES
1 *4354:Q *4570:A 12.825 
*END

*D_NET *331 0.00204141
*CONN
*I *4179:A0 I *D sky130_fd_sc_hd__mux2_1
*I *4182:A1 I *D sky130_fd_sc_hd__mux2_1
*I *4355:Q O *D sky130_fd_sc_hd__dfxtp_1
*CAP
1 *4179:A0 0.000442745
2 *4182:A1 0
3 *4355:Q 0.000190311
4 *331:12 0.000633057
5 *4179:A0 *4180:B 8.40213e-05
6 *4179:A0 *4185:A1 0.000124895
7 *4179:A0 *362:137 7.23533e-05
8 *4179:A0 *373:343 7.23533e-05
9 *331:12 *4185:A1 3.83041e-05
10 *331:12 *332:8 4.82919e-05
11 *4163:A1 *4179:A0 0.00028261
12 *4180:A *4179:A0 4.82863e-05
13 *4182:S *331:12 0
14 *4183:B *331:12 4.18603e-06
15 *4184:A2 *331:12 0
16 *4572:A *331:12 0
*RES
1 *4355:Q *331:12 8.54 
2 *331:12 *4182:A1 1.6 
3 *331:12 *4179:A0 12.095 
*END

*D_NET *332 0.000997134
*CONN
*I *4185:A1 I *D sky130_fd_sc_hd__mux2_1
*I *4182:A0 I *D sky130_fd_sc_hd__mux2_1
*I *4356:Q O *D sky130_fd_sc_hd__dfxtp_1
*CAP
1 *4185:A1 8.47516e-05
2 *4182:A0 0
3 *4356:Q 0.000101447
4 *332:8 0.000186198
5 *4163:A1 *4185:A1 0.000163199
6 *4163:A1 *332:8 0.000200615
7 *4179:A0 *4185:A1 0.000124895
8 *4182:S *4185:A1 4.94326e-05
9 *4183:B *4185:A1 0
10 *331:12 *4185:A1 3.83041e-05
11 *331:12 *332:8 4.82919e-05
*RES
1 *4356:Q *332:8 3.79 
2 *332:8 *4182:A0 1.6 
3 *332:8 *4185:A1 8.21 
*END

*D_NET *333 0.0023825
*CONN
*I *4185:A0 I *D sky130_fd_sc_hd__mux2_1
*I *4188:B2 I *D sky130_fd_sc_hd__a22o_1
*I *4357:Q O *D sky130_fd_sc_hd__dfxtp_1
*CAP
1 *4185:A0 0.000227183
2 *4188:B2 0.000112602
3 *4357:Q 0.000303538
4 *333:8 0.000643322
5 *4188:B2 *4583:A 0.000183043
6 *4148:B *4188:B2 4.18603e-06
7 *4169:B *4188:B2 0.000100536
8 *4182:S *4185:A0 1.1561e-05
9 *4183:B *4185:A0 0
10 *4188:B1 *4188:B2 4.82863e-05
11 *133:42 *333:8 8.57024e-05
12 *133:51 *333:8 0.000278111
13 *133:55 *4188:B2 1.7379e-05
14 *133:93 *333:8 0.000123225
15 *142:36 *4185:A0 4.82863e-05
16 *153:21 *4185:A0 0.000159763
17 *153:21 *4188:B2 3.57768e-05
*RES
1 *4357:Q *333:8 7.845 
2 *333:8 *4188:B2 6.96 
3 *333:8 *4185:A0 7.725 
*END

*D_NET *334 0.000146229
*CONN
*I *4190:A I *D sky130_fd_sc_hd__and3_1
*I *4399:Q O *D sky130_fd_sc_hd__dfxtp_1
*CAP
1 *4190:A 6.06188e-05
2 *4399:Q 6.06188e-05
3 *264:119 *4190:A 2.49909e-05
*RES
1 *4399:Q *4190:A 4.01 
*END

*D_NET *335 0.00808327
*CONN
*I *4338:B I *D sky130_fd_sc_hd__or3_1
*I *4512:A I *D sky130_fd_sc_hd__dlygate4sd3_1
*I *4139:A1 I *D sky130_fd_sc_hd__a221o_1
*I *4148:A I *D sky130_fd_sc_hd__and2_2
*I *4149:A I *D sky130_fd_sc_hd__nand2_2
*I *4188:A1 I *D sky130_fd_sc_hd__a22o_1
*I *4339:Q O *D sky130_fd_sc_hd__dfxtp_1
*CAP
1 *4338:B 0.000234477
2 *4512:A 0
3 *4139:A1 0.000136431
4 *4148:A 1.69128e-05
5 *4149:A 0.000136376
6 *4188:A1 6.97188e-05
7 *4339:Q 0
8 *335:55 0.000354096
9 *335:49 0.000452141
10 *335:18 0.000396752
11 *335:12 0.00133491
12 *335:4 0.00112734
13 *4139:A1 *4451:A 0.000162332
14 *4149:A *4169:A 0.000179639
15 *4338:B *4156:A1 3.81581e-05
16 *4338:B *4338:C 0.000155497
17 *335:12 *4101:A 1.56428e-05
18 *335:12 *4155:A 5.51158e-05
19 *335:12 *4444:A 0
20 *335:18 *360:10 4.35432e-05
21 *335:55 *4155:A 4.19513e-05
22 *335:55 *4156:A1 3.47296e-05
23 *335:55 *4418:D 8.96831e-05
24 *335:55 *4451:A 0.000159957
25 *527:DIODE *4139:A1 9.50342e-06
26 *4139:B1 *4139:A1 0.000210151
27 *4148:B *4148:A 4.82919e-05
28 *4148:B *4149:A 1.71013e-05
29 *4148:B *335:18 0.000340988
30 *4149:B *4149:A 9.53428e-06
31 *4169:B *4188:A1 6.97202e-05
32 *4298:B *4139:A1 8.40269e-05
33 *4337:C1 *335:12 8.25258e-05
34 *4338:A *4338:B 1.91597e-05
35 *4483:A *4338:B 4.43682e-05
36 *4483:A *335:12 0.000145752
37 *4584:A *335:18 0
38 *100:106 *335:12 5.76361e-05
39 *100:115 *335:12 2.86265e-06
40 *100:193 *4338:B 9.14155e-05
41 *130:29 *4149:A 2.4997e-05
42 *130:29 *335:18 7.63204e-05
43 *133:51 *4149:A 2.16833e-05
44 *133:55 *4149:A 9.23473e-05
45 *134:119 *335:55 0
46 *134:125 *4139:A1 5.16418e-05
47 *134:125 *335:55 0.000129735
48 *134:127 *4139:A1 0.000315827
49 *143:14 *4149:A 9.2741e-05
50 *143:74 *4149:A 9.53428e-06
51 *265:10 *335:12 0.000565849
52 *265:89 *335:12 0.00023416
*RES
1 *4339:Q *335:4 1.6 
2 *335:4 *335:12 19.195 
3 *335:12 *335:18 6.845 
4 *335:18 *4188:A1 4.74 
5 *335:18 *4149:A 7.845 
6 *335:12 *4148:A 2.05 
7 *335:4 *335:49 2 
8 *335:49 *335:55 5.505 
9 *335:55 *4139:A1 12.685 
10 *335:55 *4512:A 3.6 
11 *335:49 *4338:B 8.46 
*END

*D_NET *336 0.000542665
*CONN
*I *4444:A I *D sky130_fd_sc_hd__dlygate4sd3_1
*I *4340:Q O *D sky130_fd_sc_hd__dfxtp_2
*CAP
1 *4444:A 0.000246352
2 *4340:Q 0.000246352
3 *4444:A *4101:A 0
4 *4444:A *4155:A 0
5 *4444:A *4478:A 0
6 *4444:A *360:20 0
7 *259:42 *4444:A 4.99619e-05
8 *335:12 *4444:A 0
*RES
1 *4340:Q *4444:A 11.07 
*END

*D_NET *337 0.000660556
*CONN
*I *4478:A I *D sky130_fd_sc_hd__dlygate4sd3_1
*I *4341:Q O *D sky130_fd_sc_hd__dfxtp_1
*CAP
1 *4478:A 0.000204837
2 *4341:Q 0.000204837
3 *4478:A *360:20 0.000164287
4 *4478:A *394:30 8.65961e-05
5 *4444:A *4478:A 0
*RES
1 *4341:Q *4478:A 11.415 
*END

*D_NET *338 0.0013123
*CONN
*I *4451:A I *D sky130_fd_sc_hd__dlygate4sd3_1
*I *4342:Q O *D sky130_fd_sc_hd__dfxtp_1
*CAP
1 *4451:A 0.000311875
2 *4342:Q 0.000311875
3 *4451:A *4156:A1 6.52265e-05
4 *4451:A *4156:B1 3.95617e-05
5 *4451:A *4436:A 0
6 *574:DIODE *4451:A 0
7 *4139:A1 *4451:A 0.000162332
8 *4139:B1 *4451:A 8.49205e-05
9 *4586:A *4451:A 8.40213e-05
10 *12:9 *4451:A 0
11 *134:119 *4451:A 1.0183e-05
12 *134:125 *4451:A 8.23457e-05
13 *335:55 *4451:A 0.000159957
*RES
1 *4342:Q *4451:A 13.74 
*END

*D_NET *339 0.00383744
*CONN
*I *4436:A I *D sky130_fd_sc_hd__buf_4
*I *4607:X O *D sky130_fd_sc_hd__clkbuf_1
*CAP
1 *4436:A 0.00100961
2 *4607:X 0.00100961
3 *4436:A *572:DIODE 0
4 *4436:A *4160:A1 0
5 *4436:A *4160:C1 8.7152e-06
6 *4436:A *4344:D 0.000436027
7 *4436:A *4346:D 2.91494e-05
8 *4436:A *4567:A 5.53549e-06
9 *4436:A *373:12 0
10 led[3] *4436:A 0
11 *4451:A *4436:A 0
12 *4569:A *4436:A 6.47594e-05
13 *12:9 *4436:A 0.000185007
14 *100:206 *4436:A 3.49733e-05
15 *134:115 *4436:A 0.000698149
16 *134:119 *4436:A 0.000355896
*RES
1 *4607:X *4436:A 25.0957 
*END

*D_NET *340 0.00680249
*CONN
*I *4493:A I *D sky130_fd_sc_hd__dlygate4sd3_1
*I *4609:A I *D sky130_fd_sc_hd__buf_2
*I *4350:Q O *D sky130_fd_sc_hd__dfxtp_1
*CAP
1 *4493:A 0.000246413
2 *4609:A 0
3 *4350:Q 0
4 *340:10 0.00301647
5 *340:8 0.00309216
6 *340:4 0.000322102
7 *4493:A *4168:A1 4.05358e-05
8 *4168:B1 *4493:A 5.83121e-06
9 *4504:A *4493:A 7.89689e-05
*RES
1 *4350:Q *340:4 1.6 
2 *340:4 *340:8 2.795 
3 *340:8 *340:10 50.595 
4 *340:10 *4609:A 3.6 
5 *340:4 *4493:A 9.65 
*END

*D_NET *341 0.00119039
*CONN
*I *4245:C1 I *D sky130_fd_sc_hd__o311a_2
*I *4246:A1 I *D sky130_fd_sc_hd__o21ai_1
*I *4593:X O *D sky130_fd_sc_hd__dlygate4sd3_1
*CAP
1 *4245:C1 0.000159758
2 *4246:A1 0.000103168
3 *4593:X 0
4 *341:4 0.000262926
5 *4245:C1 *4242:A3 0
6 *4245:C1 *356:27 0
7 *4245:C1 *460:54 0.000206123
8 *4593:A *4246:A1 1.47347e-05
9 *4594:A *4246:A1 5.83121e-06
10 *259:173 *4245:C1 0.000119756
11 *259:173 *4246:A1 0.000318091
*RES
1 *4593:X *341:4 1.6 
2 *341:4 *4246:A1 4.465 
3 *341:4 *4245:C1 9.14 
*END

*D_NET *342 9.92898e-05
*CONN
*I *4247:B I *D sky130_fd_sc_hd__nor2_1
*I *4594:X O *D sky130_fd_sc_hd__dlygate4sd3_1
*CAP
1 *4247:B 1.17375e-05
2 *4594:X 1.17375e-05
3 *4247:A *4247:B 4.82919e-05
4 *4595:A *4247:B 2.75229e-05
*RES
1 *4594:X *4247:B 3.65 
*END

*D_NET *343 0.000400018
*CONN
*I *4380:D I *D sky130_fd_sc_hd__dfxtp_1
*I *4595:X O *D sky130_fd_sc_hd__dlygate4sd3_1
*CAP
1 *4380:D 0.000105009
2 *4595:X 0.000105009
3 *4380:D *4122:A1 0.000117832
4 *4380:D *4245:A2 4.82919e-05
5 *4380:D *356:27 0
6 *4380:D *460:54 9.50342e-06
7 *140:66 *4380:D 1.43717e-05
*RES
1 *4595:X *4380:D 9.16875 
*END

*D_NET *344 0.00395533
*CONN
*I *4279:A1 I *D sky130_fd_sc_hd__a21o_1
*I *4278:A1 I *D sky130_fd_sc_hd__a21oi_1
*I *4277:A1 I *D sky130_fd_sc_hd__o21ai_1
*I *4280:B I *D sky130_fd_sc_hd__nand3_1
*I *4597:X O *D sky130_fd_sc_hd__dlygate4sd3_1
*CAP
1 *4279:A1 7.2727e-05
2 *4278:A1 0.000282575
3 *4277:A1 0
4 *4280:B 0.000275528
5 *4597:X 0.00027368
6 *344:14 0.000384724
7 *344:12 0.000424018
8 *344:10 0.000378655
9 *4276:A *344:10 0.000141606
10 *4279:A2 *4279:A1 8.49205e-05
11 *4280:C *4280:B 0.000499661
12 *4281:B *344:14 0
13 *4391:CLK *344:10 2.75145e-05
14 *4598:A *344:10 8.78735e-05
15 *4598:A *344:12 5.02217e-05
16 *4598:A *344:14 5.28781e-05
17 *219:19 *4280:B 9.50342e-06
18 *219:19 *344:14 0.00017354
19 *219:39 *344:10 2.14129e-05
20 *219:39 *344:12 8.69088e-05
21 *219:39 *344:14 7.30547e-05
22 *262:6 *4278:A1 0.000276441
23 *262:8 *4278:A1 0.000124895
24 *262:73 *4278:A1 4.66108e-05
25 *276:10 *344:10 0.000106377
*RES
1 *4597:X *344:10 8.355 
2 *344:10 *344:12 1.125 
3 *344:12 *344:14 2.91 
4 *344:14 *4280:B 9.135 
5 *344:14 *4277:A1 3.6 
6 *344:12 *4278:A1 7.5 
7 *344:10 *4279:A1 4.74 
*END

*D_NET *345 0.000565922
*CONN
*I *4391:D I *D sky130_fd_sc_hd__dfxtp_1
*I *4598:X O *D sky130_fd_sc_hd__dlygate4sd3_1
*CAP
1 *4391:D 0.000141383
2 *4598:X 0.000141383
3 *4349:CLK *4391:D 9.54469e-05
4 *276:10 *4391:D 0.000187708
*RES
1 *4598:X *4391:D 10.0387 
*END

*D_NET *346 0.00237425
*CONN
*I *4173:A1 I *D sky130_fd_sc_hd__mux2_1
*I *4170:A0 I *D sky130_fd_sc_hd__mux2_1
*I *4599:X O *D sky130_fd_sc_hd__dlygate4sd3_1
*CAP
1 *4173:A1 6.05542e-05
2 *4170:A0 0.000159223
3 *4599:X 0.000268044
4 *346:10 0.000487822
5 *4170:A0 *362:47 4.43871e-06
6 *4170:A0 *362:94 6.34101e-06
7 *4173:A1 *373:48 0.000122797
8 *346:10 *4173:A0 9.3113e-05
9 *346:10 *4614:A 4.1652e-06
10 led[3] *346:10 0.000345733
11 *4170:S *4170:A0 0.00020843
12 *4171:B *4170:A0 0
13 *4171:B *346:10 0
14 *4175:A2 *4170:A0 0.000122702
15 *4480:A *4170:A0 1.5996e-05
16 *4575:A *346:10 0.000180682
17 *4576:A *346:10 2.49909e-05
18 *4599:A *346:10 4.66108e-05
19 *133:93 *346:10 0
20 *153:55 *4170:A0 4.14369e-05
21 *153:55 *346:10 0.000154327
22 *259:64 *4170:A0 0
23 *327:8 *4170:A0 2.68464e-05
*RES
1 *4599:X *346:10 10.74 
2 *346:10 *4170:A0 7.395 
3 *346:10 *4173:A1 4.74 
*END

*D_NET *347 0.000548049
*CONN
*I *4174:B I *D sky130_fd_sc_hd__or2_1
*I *4600:X O *D sky130_fd_sc_hd__dlygate4sd3_1
*CAP
1 *4174:B 0.000196691
2 *4600:X 0.000196691
3 *4575:A *4174:B 7.08554e-05
4 *4601:A *4174:B 8.38119e-05
*RES
1 *4600:X *4174:B 6.41 
*END

*D_NET *348 0.00141351
*CONN
*I *4175:B1 I *D sky130_fd_sc_hd__o211a_1
*I *4601:X O *D sky130_fd_sc_hd__dlygate4sd3_1
*CAP
1 *4175:B1 0.000422947
2 *4601:X 0.000422947
3 *4175:B1 *4175:A1 6.73269e-05
4 *4175:B1 *4583:A 9.97536e-06
5 *4175:B1 *362:35 0.000140113
6 *4175:B1 *495:12 4.37599e-05
7 *4175:A2 *4175:B1 3.7837e-05
8 *4599:A *4175:B1 0.000175358
9 *4601:A *4175:B1 6.32125e-05
10 *133:114 *4175:B1 3.00381e-05
11 *153:55 *4175:B1 0
*RES
1 *4601:X *4175:B1 14.64 
*END

*D_NET *349 0.000609036
*CONN
*I *4352:D I *D sky130_fd_sc_hd__dfxtp_1
*I *4602:X O *D sky130_fd_sc_hd__dlygate4sd3_1
*CAP
1 *4352:D 0.000167488
2 *4602:X 0.000167488
3 *4352:D *362:35 0.000119756
4 *4352:D *373:48 1.43717e-05
5 *4352:D *495:12 0
6 *100:206 *4352:D 0.000139933
*RES
1 *4602:X *4352:D 10.1138 
*END

*D_NET *350 0.00218285
*CONN
*I *4096:A I *D sky130_fd_sc_hd__inv_2
*I *4130:A I *D sky130_fd_sc_hd__or4bb_1
*I *4335:B1 I *D sky130_fd_sc_hd__a31o_1
*I *4603:X O *D sky130_fd_sc_hd__dlygate4sd3_1
*CAP
1 *4096:A 0
2 *4130:A 0
3 *4335:B1 0.000177825
4 *4603:X 0.000123687
5 *350:14 0.000583848
6 *350:6 0.00052971
7 *4335:B1 *4130:B 0.00015496
8 *4335:B1 *4335:A2 8.8266e-05
9 *350:14 *4151:A1 0
10 *350:14 *4417:D 1.53032e-05
11 *4131:D *4335:B1 8.65961e-05
12 *4131:D *350:14 4.60584e-05
13 *4151:A2 *350:14 0
14 *4334:C *4335:B1 0.000201503
15 *4335:A3 *4335:B1 4.60584e-05
16 *4336:A1 *350:6 3.64998e-06
17 *4487:A *350:14 0
18 *259:14 *350:14 8.53113e-06
19 *259:20 *350:14 0.000116853
*RES
1 *4603:X *350:6 3.43 
2 *350:6 *350:14 11.05 
3 *350:14 *4335:B1 6.565 
4 *350:14 *4130:A 1.6 
5 *350:6 *4096:A 1.6 
*END

*D_NET *351 0.00276712
*CONN
*I *4610:A I *D sky130_fd_sc_hd__buf_2
*I *4337:B2 I *D sky130_fd_sc_hd__o221a_1
*I *4418:Q O *D sky130_fd_sc_hd__dfxtp_1
*CAP
1 *4610:A 2.08101e-05
2 *4337:B2 0.000508245
3 *4418:Q 7.03277e-05
4 *351:8 0.000599383
5 *4337:B2 *4156:A1 0.000328065
6 *4337:B2 *4337:A1 0.000120407
7 *4337:B2 *4418:D 8.58095e-05
8 *4337:B2 *362:47 0
9 *351:8 *4418:D 8.82557e-05
10 uart_txd *351:8 5.05437e-05
11 *538:DIODE *4337:B2 4.43682e-05
12 *4138:A *4337:B2 0.000187071
13 *4139:B1 *4337:B2 6.36578e-05
14 *4337:A2 *4337:B2 3.7837e-05
15 *4337:B1 *4337:B2 8.00892e-06
16 *4480:A *4337:B2 0.000159403
17 *4481:A *4337:B2 0.000309998
18 *4483:A *4337:B2 1.34503e-05
19 *100:193 *4337:B2 7.1476e-05
*RES
1 *4418:Q *351:8 3.445 
2 *351:8 *4337:B2 18.8 
3 *351:8 *4610:A 1.96 
*END

*D_NET *352 0.000690991
*CONN
*I *4417:D I *D sky130_fd_sc_hd__dfxtp_1
*I *4604:X O *D sky130_fd_sc_hd__dlygate4sd3_1
*CAP
1 *4417:D 0.000165807
2 *4604:X 0.000165807
3 *4336:B1 *4417:D 0
4 *4487:A *4417:D 0.000163992
5 *4604:A *4417:D 2.75229e-05
6 *259:14 *4417:D 7.07801e-05
7 *259:20 *4417:D 6.74079e-05
8 *264:88 *4417:D 1.43717e-05
9 *350:14 *4417:D 1.53032e-05
*RES
1 *4604:X *4417:D 11.2087 
*END

*D_NET *353 0.00440981
*CONN
*I *4127:D_N I *D sky130_fd_sc_hd__or4b_1
*I *4310:A1 I *D sky130_fd_sc_hd__a31o_1
*I *4309:A1 I *D sky130_fd_sc_hd__o211a_1
*I *4308:A I *D sky130_fd_sc_hd__nand2_1
*I *4311:B I *D sky130_fd_sc_hd__and4_1
*I *4605:X O *D sky130_fd_sc_hd__dlygate4sd3_1
*CAP
1 *4127:D_N 0.000329663
2 *4310:A1 0
3 *4309:A1 0
4 *4308:A 0.0004722
5 *4311:B 2.30959e-05
6 *4605:X 0.000216789
7 *353:29 0.000730844
8 *353:16 0.000321297
9 *353:12 3.95575e-05
10 *353:10 0.000546453
11 *4127:D_N *4127:C 4.60584e-05
12 *4127:D_N *4305:A 0.000122325
13 *4127:D_N *388:23 8.40269e-05
14 *4308:A *4407:D 0
15 *353:10 *388:23 0
16 *353:16 *4310:B1 4.00541e-06
17 *353:29 *4304:B1 0
18 *353:29 *4309:B1 2.05661e-05
19 *4309:A2 *353:29 0.000163019
20 *4439:A *4308:A 4.99619e-05
21 *4491:A *4127:D_N 0
22 *4605:A *353:29 0.000138544
23 *4606:A *4308:A 0
24 *4606:A *353:29 0
25 *144:24 *4127:D_N 0.00023468
26 *144:60 *4311:B 0.000163199
27 *144:60 *353:16 0.000121883
28 *234:26 *4127:D_N 4.72472e-05
29 *234:26 *353:10 8.53113e-06
30 *234:28 *4311:B 0.000163199
31 *234:28 *353:16 8.65961e-05
32 *238:14 *4127:D_N 0.00019948
33 *238:14 *353:16 2.05056e-05
34 *239:12 *4308:A 5.53249e-06
35 *264:41 *353:10 5.05521e-05
36 *264:41 *353:29 0
*RES
1 *4605:X *353:10 6.465 
2 *353:10 *353:12 2 
3 *353:12 *353:16 1.5 
4 *353:16 *4311:B 3.085 
5 *353:16 *353:29 9.715 
6 *353:29 *4308:A 12.77 
7 *353:29 *4309:A1 1.6 
8 *353:12 *4310:A1 1.6 
9 *353:10 *4127:D_N 10.71 
*END

*D_NET *354 0.000832204
*CONN
*I *4309:B1 I *D sky130_fd_sc_hd__o211a_1
*I *4606:X O *D sky130_fd_sc_hd__dlygate4sd3_1
*CAP
1 *4309:B1 0.000264639
2 *4606:X 0.000264639
3 *4309:B1 *4304:B1 0
4 *4309:B1 *4307:C 0
5 *4309:A2 *4309:B1 0.000164679
6 *4605:A *4309:B1 9.30717e-05
7 *264:41 *4309:B1 2.46089e-05
8 *353:29 *4309:B1 2.05661e-05
*RES
1 *4606:X *4309:B1 11.76 
*END

*D_NET *355 0.000199904
*CONN
*I *4407:D I *D sky130_fd_sc_hd__dfxtp_1
*I *4439:X O *D sky130_fd_sc_hd__dlygate4sd3_1
*CAP
1 *4407:D 8.04889e-05
2 *4439:X 8.04889e-05
3 *4308:A *4407:D 0
4 *4606:A *4407:D 2.45547e-05
5 *239:20 *4407:D 1.43717e-05
*RES
1 *4439:X *4407:D 8.46375 
*END

*D_NET *356 0.00559962
*CONN
*I *4099:A I *D sky130_fd_sc_hd__inv_2
*I *4143:A1 I *D sky130_fd_sc_hd__a31o_1
*I *4243:D I *D sky130_fd_sc_hd__or4_1
*I *4136:B I *D sky130_fd_sc_hd__or4_4
*I *4134:B I *D sky130_fd_sc_hd__or3_1
*I *4242:A3 I *D sky130_fd_sc_hd__o31a_1
*I *4245:A3 I *D sky130_fd_sc_hd__o311a_2
*I *4145:B2 I *D sky130_fd_sc_hd__a22o_1
*I *4440:X O *D sky130_fd_sc_hd__dlygate4sd3_1
*CAP
1 *4099:A 0.000104948
2 *4143:A1 0
3 *4243:D 1.8095e-05
4 *4136:B 0
5 *4134:B 0.000136055
6 *4242:A3 0.000248816
7 *4245:A3 8.11331e-05
8 *4145:B2 0
9 *4440:X 8.10783e-05
10 *356:78 0.000219193
11 *356:65 0.000203026
12 *356:49 0.000169735
13 *356:27 0.000456631
14 *356:18 0.000431983
15 *356:12 0.000653211
16 *356:8 0.000465995
17 *4099:A *530:DIODE 4.99619e-05
18 *4099:A *4141:A 7.53768e-05
19 *4099:A *366:12 1.26148e-05
20 *4099:A *373:272 4.0843e-05
21 *4099:A *373:274 6.27114e-05
22 *4099:A *488:56 2.30292e-05
23 *4099:A *488:66 2.75229e-05
24 *4134:B *4136:A 2.75349e-05
25 *4242:A3 *4245:A2 0.00016866
26 *4242:A3 *460:54 0
27 *4242:A3 *488:85 1.26626e-05
28 *4243:D *488:66 8.49205e-05
29 *4245:A3 *4245:A2 0.000207887
30 *356:18 *532:DIODE 8.49205e-05
31 *356:18 *4122:A1 0
32 *356:27 *4245:A2 2.86623e-05
33 *356:27 *460:54 0
34 *356:49 *4136:A 4.99619e-05
35 *4136:C *4134:B 0.000100604
36 *4143:A3 *356:12 1.71013e-05
37 *4143:A3 *356:65 5.7344e-05
38 *4143:A3 *356:78 9.07769e-05
39 *4143:B1 *4099:A 9.78603e-05
40 *4143:B1 *356:78 3.09164e-05
41 *4145:A2 *356:18 0.000149621
42 *4145:A2 *356:49 2.0514e-05
43 *4152:B1 *356:27 0
44 *4244:B *4242:A3 7.05863e-06
45 *4245:C1 *4242:A3 0
46 *4245:C1 *356:27 0
47 *4375:CLK *4243:D 8.49205e-05
48 *4380:CLK *356:18 0.000307049
49 *4380:D *356:27 0
50 *4595:A *4245:A3 0.000200148
51 *122:32 *356:12 0
52 *122:45 *356:8 0.0001249
53 *134:14 *356:12 5.02217e-05
54 *140:51 *356:18 2.7881e-05
55 *140:51 *356:27 5.53249e-06
56 *151:16 *356:12 0
57 *151:16 *356:65 0
58 *151:16 *356:78 0
*RES
1 *4440:X *356:8 4.74 
2 *356:8 *356:12 7.205 
3 *356:12 *356:18 7.895 
4 *356:18 *4145:B2 3.6 
5 *356:18 *356:27 2.145 
6 *356:27 *4245:A3 6.81 
7 *356:27 *4242:A3 7.98 
8 *356:12 *356:49 0.795 
9 *356:49 *4134:B 3.445 
10 *356:49 *4136:B 1.6 
11 *356:8 *356:65 1.38 
12 *356:65 *4243:D 4.395 
13 *356:65 *356:78 4.145 
14 *356:78 *4143:A1 1.6 
15 *356:78 *4099:A 4.825 
*END

*D_NET *357 0.00256403
*CONN
*I *4237:B1 I *D sky130_fd_sc_hd__a21o_1
*I *4238:A I *D sky130_fd_sc_hd__nand3_1
*I *4140:D_N I *D sky130_fd_sc_hd__or4b_1
*I *4441:X O *D sky130_fd_sc_hd__dlygate4sd3_1
*CAP
1 *4237:B1 4.34746e-05
2 *4238:A 0.000118192
3 *4140:D_N 0.000143842
4 *4441:X 0
5 *357:8 0.000349974
6 *357:4 0.000131415
7 *4140:D_N *4231:A1 4.60584e-05
8 *4238:A *4234:A 0.000275548
9 *4140:A *4140:D_N 0.000218235
10 *4140:A *357:8 2.15594e-05
11 *4140:C *4140:D_N 0.000198939
12 *4237:A1 *4237:B1 0.000123225
13 *4238:B *4238:A 0.000183474
14 *4238:C *4238:A 0.000120801
15 *4239:B *4237:B1 1.83847e-05
16 *4376:D *4140:D_N 1.0183e-05
17 *4376:D *357:8 6.95505e-05
18 *4448:A *4140:D_N 4.43871e-06
19 *192:16 *4238:A 0.000235573
20 *192:18 *4238:A 0.000120655
21 *270:10 *357:8 3.09233e-05
22 *270:16 *357:8 9.95835e-05
*RES
1 *4441:X *357:4 1.6 
2 *357:4 *357:8 4.145 
3 *357:8 *4140:D_N 7.575 
4 *357:8 *4238:A 9.015 
5 *357:4 *4237:B1 2.74 
*END

*D_NET *358 0.000440776
*CONN
*I *4239:C I *D sky130_fd_sc_hd__and3_1
*I *4442:X O *D sky130_fd_sc_hd__dlygate4sd3_1
*CAP
1 *4239:C 0.000196242
2 *4442:X 0.000196242
3 *4239:A *4239:C 4.82919e-05
4 *4442:A *4239:C 0
5 *4464:A *4239:C 0
*RES
1 *4442:X *4239:C 9.615 
*END

*D_NET *359 0.000225712
*CONN
*I *4377:D I *D sky130_fd_sc_hd__dfxtp_1
*I *4443:X O *D sky130_fd_sc_hd__dlygate4sd3_1
*CAP
1 *4377:D 0.000112856
2 *4443:X 0.000112856
3 *4442:A *4377:D 0
*RES
1 *4443:X *4377:D 8.97375 
*END

*D_NET *360 0.00623598
*CONN
*I *4285:A1 I *D sky130_fd_sc_hd__a2111o_1
*I *4126:B I *D sky130_fd_sc_hd__and3_1
*I *4102:A I *D sky130_fd_sc_hd__inv_2
*I *4169:A I *D sky130_fd_sc_hd__nand2_2
*I *4191:A1 I *D sky130_fd_sc_hd__a31o_1
*I *4287:A I *D sky130_fd_sc_hd__or2_1
*I *4299:A2 I *D sky130_fd_sc_hd__o31a_2
*I *4444:X O *D sky130_fd_sc_hd__dlygate4sd3_1
*CAP
1 *4285:A1 0
2 *4126:B 5.21056e-05
3 *4102:A 6.75864e-05
4 *4169:A 0.000141559
5 *4191:A1 0
6 *4287:A 0
7 *4299:A2 0.000194875
8 *4444:X 0
9 *360:75 0.00026887
10 *360:62 0.000512269
11 *360:20 0.000793062
12 *360:14 0.000638835
13 *360:10 0.000544779
14 *360:4 0.000590491
15 *4126:B *4285:A2 7.55391e-05
16 *4126:B *4285:C1 4.05358e-05
17 *4299:A2 *4127:C 7.00889e-06
18 *4299:A2 *4299:A3 2.29156e-05
19 *4299:A2 *4299:B1 5.84828e-05
20 *4299:A2 *367:22 0
21 *360:20 *4299:A1 0
22 *360:20 *4341:D 0
23 *360:75 *4156:B1 1.16283e-05
24 *4148:B *360:10 0.000278117
25 *4148:B *360:62 0.000119019
26 *4149:A *4169:A 0.000179639
27 *4189:B1 *360:20 4.35432e-05
28 *4191:A2 *360:20 4.99619e-05
29 *4191:A3 *4169:A 4.40812e-05
30 *4191:B1 *360:20 0.0001249
31 *4351:CLK *360:75 0
32 *4444:A *360:20 0
33 *4478:A *360:20 0.000164287
34 *100:117 *360:75 0.000104287
35 *100:123 *4126:B 5.00005e-05
36 *100:123 *360:75 9.50342e-06
37 *100:174 *4102:A 8.49205e-05
38 *100:174 *360:75 0.000220672
39 *100:193 *4102:A 4.82919e-05
40 *130:29 *4169:A 3.09164e-05
41 *130:29 *360:10 0.00014368
42 *130:29 *360:20 0
43 *133:51 *4169:A 0.000163204
44 *142:10 *4102:A 8.69182e-05
45 *142:10 *360:62 0.000198939
46 *143:14 *4169:A 1.47347e-05
47 *143:74 *4169:A 1.22762e-05
48 *265:57 *360:75 0
49 *335:18 *360:10 4.35432e-05
*RES
1 *4444:X *360:4 1.6 
2 *360:4 *360:10 7.625 
3 *360:10 *360:14 2.45 
4 *360:14 *360:20 12.935 
5 *360:20 *4299:A2 6.24 
6 *360:20 *4287:A 3.6 
7 *360:14 *4191:A1 1.6 
8 *360:10 *4169:A 7.485 
9 *360:4 *360:62 4.02 
10 *360:62 *4102:A 3.445 
11 *360:62 *360:75 6.44 
12 *360:75 *4126:B 5.235 
13 *360:75 *4285:A1 3.6 
*END

*D_NET *361 0.000466611
*CONN
*I *4357:D I *D sky130_fd_sc_hd__dfxtp_1
*I *4445:X O *D sky130_fd_sc_hd__dlygate4sd3_1
*CAP
1 *4357:D 0.000128263
2 *4445:X 0.000128263
3 *4191:A3 *4357:D 4.80182e-05
4 *4284:B1 *4357:D 3.05238e-05
5 *133:42 *4357:D 0.00012672
6 *143:74 *4357:D 0
7 *168:6 *4357:D 4.82319e-06
8 *264:117 *4357:D 0
*RES
1 *4445:X *4357:D 10.0087 
*END

*D_NET *362 0.0235115
*CONN
*I *4160:C1 I *D sky130_fd_sc_hd__o211a_1
*I *4175:C1 I *D sky130_fd_sc_hd__o211a_1
*I *4181:C1 I *D sky130_fd_sc_hd__o211a_1
*I *4158:C1 I *D sky130_fd_sc_hd__o211a_1
*I *4195:B1 I *D sky130_fd_sc_hd__o211a_1
*I *4193:B1 I *D sky130_fd_sc_hd__o211a_1
*I *4197:B1 I *D sky130_fd_sc_hd__o211a_1
*I *4199:B1 I *D sky130_fd_sc_hd__o211a_1
*I *4178:C1 I *D sky130_fd_sc_hd__o211a_1
*I *4184:C1 I *D sky130_fd_sc_hd__o211a_1
*I *4187:C1 I *D sky130_fd_sc_hd__o211a_1
*I *4172:C1 I *D sky130_fd_sc_hd__o211a_1
*I *4126:A I *D sky130_fd_sc_hd__and3_1
*I *4132:A1 I *D sky130_fd_sc_hd__a31o_1
*I *4147:A1 I *D sky130_fd_sc_hd__a31o_1
*I *4156:C1 I *D sky130_fd_sc_hd__o211a_1
*I *4435:X O *D sky130_fd_sc_hd__buf_4
*CAP
1 *4160:C1 0.000211141
2 *4175:C1 0
3 *4181:C1 3.38447e-05
4 *4158:C1 0.000785736
5 *4195:B1 0.000272028
6 *4193:B1 6.55874e-05
7 *4197:B1 0
8 *4199:B1 4.61707e-05
9 *4178:C1 0.000208071
10 *4184:C1 0.000244093
11 *4187:C1 3.04407e-05
12 *4172:C1 7.51914e-05
13 *4126:A 0
14 *4132:A1 0.000198128
15 *4147:A1 2.09808e-05
16 *4156:C1 0.000307583
17 *4435:X 7.2421e-05
18 *362:192 0.000346091
19 *362:185 0.000205648
20 *362:170 0.000473906
21 *362:164 0.00114097
22 *362:145 0.000540415
23 *362:137 0.000418177
24 *362:117 0.000758417
25 *362:107 0.000753439
26 *362:94 0.000621006
27 *362:70 0.000522204
28 *362:47 0.00108303
29 *362:37 0.00119089
30 *362:35 0.000588444
31 *362:10 0.000933256
32 *362:6 0.000320792
33 *4132:A1 *4146:C 9.38662e-05
34 *4156:C1 *572:DIODE 0.000264925
35 *4156:C1 *4339:D 0.000134236
36 *4156:C1 *4567:A 0.000228297
37 *4158:C1 *4158:A1 4.66108e-05
38 *4158:C1 *4158:B1 0.00011852
39 *4158:C1 *4530:A 7.21296e-06
40 *4158:C1 *495:12 0.00039802
41 *4160:C1 *4160:B1 1.56428e-05
42 *4160:C1 *4567:A 0.000377624
43 *4172:C1 *4172:A1 5.83121e-06
44 *4172:C1 *4351:D 0.000122337
45 *4178:C1 *551:DIODE 8.65961e-05
46 *4178:C1 *4178:A1 2.37896e-05
47 *4181:C1 *4181:B1 4.76263e-05
48 *4184:C1 *4187:A1 0
49 *4184:C1 *4356:D 5.20968e-05
50 *4187:C1 *373:60 9.21168e-05
51 *4187:C1 *373:64 3.00381e-05
52 *4193:B1 *4197:A1 0.00013106
53 *4195:B1 *4195:A1 0.000173858
54 *4195:B1 *4197:A1 4.47209e-05
55 *4199:B1 *460:179 4.99619e-05
56 *362:6 *4160:B1 3.64998e-06
57 *362:6 *373:27 4.82863e-05
58 *362:10 *572:DIODE 5.92191e-05
59 *362:10 *4567:A 0.000116853
60 *362:35 *4175:A1 2.01504e-05
61 *362:35 *4344:D 2.32369e-05
62 *362:35 *4583:A 0.000100002
63 *362:47 *4147:A3 9.2541e-05
64 *362:47 *4156:A1 0
65 *362:47 *367:6 1.52352e-05
66 *362:47 *367:14 1.9872e-05
67 *362:70 *4146:C 6.97118e-05
68 *362:70 *367:14 1.87977e-05
69 *362:94 *4172:A1 6.65725e-05
70 *362:94 *4351:D 0.000153217
71 *362:94 *373:48 9.33501e-05
72 *362:107 *4156:B1 0
73 *362:107 *373:48 0.000178314
74 *362:117 *4156:B1 4.43682e-05
75 *362:117 *373:60 0.000522406
76 *362:137 *4181:B1 7.23533e-05
77 *362:137 *373:48 0.00011686
78 *362:137 *373:343 0.000224429
79 *362:145 *551:DIODE 3.0807e-05
80 *362:145 *4160:A1 2.65028e-05
81 *362:145 *4172:A1 3.91572e-05
82 *362:145 *491:12 4.15296e-05
83 *362:164 *4172:A1 2.67022e-05
84 *362:164 *491:12 0.000145318
85 *362:170 *4178:A1 0
86 *362:170 *491:12 0.000310425
87 *362:185 *460:192 0
88 *362:192 *4197:A1 5.4155e-06
89 uart_txd *4156:C1 0
90 *571:DIODE *362:170 0
91 *4132:A3 *4132:A1 4.82863e-05
92 *4132:B1 *4132:A1 5.05437e-05
93 *4138:A *362:47 0
94 *4155:B *4156:C1 3.17967e-05
95 *4155:B *4160:C1 0.000103974
96 *4170:A0 *362:47 4.43871e-06
97 *4170:A0 *362:94 6.34101e-06
98 *4170:S *362:94 0.00013994
99 *4173:S *362:94 0.000196045
100 *4175:A2 *362:35 3.04704e-05
101 *4175:A2 *362:107 5.4003e-05
102 *4175:B1 *362:35 0.000140113
103 *4177:A *362:145 4.43871e-06
104 *4178:A2 *4181:C1 3.01119e-05
105 *4178:A2 *362:137 9.50342e-06
106 *4179:A0 *362:137 7.23533e-05
107 *4181:A2 *4181:C1 4.66108e-05
108 *4181:A2 *362:145 8.23457e-05
109 *4183:B *362:117 4.99619e-05
110 *4184:A2 *4184:C1 1.52862e-05
111 *4184:B1 *4184:C1 0.000282563
112 *4187:B1 *4184:C1 0
113 *4193:A2 *4193:B1 0.000157584
114 *4195:A2 *4195:B1 6.90476e-05
115 *4195:C1 *4195:B1 2.16389e-05
116 *4197:A2 *4195:B1 3.60648e-06
117 *4197:A2 *362:185 9.50342e-06
118 *4197:C1 *362:185 6.28843e-05
119 *4203:C1 *4184:C1 0
120 *4337:B1 *362:47 0
121 *4337:B1 *362:70 8.40213e-05
122 *4337:B2 *362:47 0
123 *4344:CLK *362:35 4.41506e-05
124 *4345:CLK *4158:C1 0
125 *4352:D *362:35 0.000119756
126 *4358:CLK *4195:B1 0.000116853
127 *4427:A *4158:C1 4.99619e-05
128 *4436:A *4160:C1 8.7152e-06
129 *4447:A *362:94 0.000270409
130 *4458:A *362:47 2.26364e-05
131 *4480:A *362:47 2.87713e-05
132 *4483:A *362:47 0.000215348
133 *4571:A *362:117 0.000120655
134 *4573:A *4178:C1 0.0001145
135 *4579:A *4184:C1 7.75412e-05
136 *4584:A *4156:C1 6.38786e-05
137 *4584:A *362:117 0.000113255
138 *4602:A *362:35 8.57024e-05
139 *97:77 *4181:C1 4.66108e-05
140 *97:77 *362:170 1.73877e-05
141 *97:88 *362:170 4.18603e-06
142 *97:88 *362:185 9.87988e-05
143 *97:103 *4193:B1 0.000114024
144 *97:103 *4195:B1 4.82863e-05
145 *100:127 *362:70 2.32724e-05
146 *100:263 *4158:C1 0.000137029
147 *133:93 *4172:C1 6.07575e-06
148 *134:93 *4158:C1 3.86529e-05
149 *134:207 *4158:C1 5.29131e-05
150 *141:10 *4132:A1 0
151 *143:14 *4172:C1 8.64667e-05
152 *143:31 *362:107 0.000199032
153 *143:31 *362:137 0.000610174
154 *143:74 *4184:C1 8.68097e-06
155 *143:80 *4187:C1 0.000201503
156 *143:80 *362:117 6.6564e-05
157 *225:10 *362:47 9.37731e-05
158 *259:64 *4178:C1 7.57302e-05
159 *259:64 *362:164 0
160 *259:64 *362:170 0
161 *265:12 *362:70 7.39849e-05
162 *267:6 *4158:C1 0.000121987
163 *267:8 *4158:C1 0.00030842
164 *267:14 *4181:C1 6.71803e-06
165 *267:65 *4178:C1 0
166 *301:8 *362:185 0
167 *301:27 *362:170 0
168 *305:12 *4158:C1 8.65905e-05
169 *305:12 *362:164 2.66935e-05
*RES
1 *4435:X *362:6 2.74 
2 *362:6 *362:10 3.38 
3 *362:10 *4156:C1 11.34 
4 *362:10 *362:35 11.465 
5 *362:35 *362:37 2 
6 *362:37 *362:47 14.525 
7 *362:47 *4147:A1 1.96 
8 *362:47 *362:70 9.01 
9 *362:70 *4132:A1 5.2 
10 *362:70 *4126:A 1.6 
11 *362:37 *362:94 10.895 
12 *362:94 *4172:C1 3.7 
13 *362:94 *362:107 4.91 
14 *362:107 *362:117 12.41 
15 *362:117 *4187:C1 3.43 
16 *362:117 *4184:C1 12.08 
17 *362:107 *362:137 7.245 
18 *362:137 *362:145 7.21 
19 *362:145 *4178:C1 11.095 
20 *362:145 *362:164 3.165 
21 *362:164 *362:170 4.995 
22 *362:170 *4199:B1 4.5 
23 *362:170 *362:185 6.185 
24 *362:185 *4197:B1 1.6 
25 *362:185 *362:192 0.36 
26 *362:192 *4193:B1 4.135 
27 *362:192 *4195:B1 11.99 
28 *362:164 *4158:C1 21.355 
29 *362:137 *4181:C1 4.665 
30 *362:35 *4175:C1 1.6 
31 *362:6 *4160:C1 10.835 
*END

*D_NET *363 0.0030236
*CONN
*I *4172:A1 I *D sky130_fd_sc_hd__o211a_1
*I *4446:X O *D sky130_fd_sc_hd__dlygate4sd3_1
*CAP
1 *4172:A1 0.000412068
2 *4446:X 0.000412068
3 *4172:A1 *4354:D 0.000141606
4 *4172:A1 *373:48 0.000272978
5 *4172:C1 *4172:A1 5.83121e-06
6 *4177:A *4172:A1 0.000230915
7 *4447:A *4172:A1 0.000198046
8 *133:93 *4172:A1 2.0514e-05
9 *142:10 *4172:A1 7.36562e-05
10 *142:28 *4172:A1 0.000140844
11 *259:64 *4172:A1 0.000982644
12 *362:94 *4172:A1 6.65725e-05
13 *362:145 *4172:A1 3.91572e-05
14 *362:164 *4172:A1 2.67022e-05
*RES
1 *4446:X *4172:A1 21.645 
*END

*D_NET *364 0.000966649
*CONN
*I *4351:D I *D sky130_fd_sc_hd__dfxtp_1
*I *4447:X O *D sky130_fd_sc_hd__dlygate4sd3_1
*CAP
1 *4351:D 0.000238861
2 *4447:X 0.000238861
3 *4351:D *4155:A 9.16315e-05
4 *4351:D *4583:A 1.54049e-05
5 *4172:C1 *4351:D 0.000122337
6 *4175:A2 *4351:D 8.34348e-05
7 *4351:CLK *4351:D 2.29028e-05
8 *362:94 *4351:D 0.000153217
*RES
1 *4447:X *4351:D 11.7487 
*END

*D_NET *365 0.00207435
*CONN
*I *4232:A I *D sky130_fd_sc_hd__and4_1
*I *4140:B I *D sky130_fd_sc_hd__or4b_1
*I *4231:B1 I *D sky130_fd_sc_hd__a31o_1
*I *4448:X O *D sky130_fd_sc_hd__dlygate4sd3_1
*CAP
1 *4232:A 0.000235458
2 *4140:B 0
3 *4231:B1 0.000344915
4 *4448:X 0
5 *365:6 0.000512904
6 *365:4 0.000403447
7 *4231:B1 *4231:A1 0.000120695
8 *4231:B1 *366:12 3.86607e-05
9 *4231:B1 *488:66 0
10 *4140:A *4231:B1 4.05674e-06
11 *4140:A *365:6 2.10034e-05
12 *4140:C *4232:A 0.000176511
13 *4140:C *365:6 9.27495e-05
14 *4450:A *4231:B1 4.99619e-05
15 *4559:A *4231:B1 7.39917e-05
16 *151:16 *4231:B1 0
17 *188:32 *4231:B1 0
*RES
1 *4448:X *365:4 1.6 
2 *365:4 *365:6 2.175 
3 *365:6 *4231:B1 11.12 
4 *365:6 *4140:B 1.6 
5 *365:4 *4232:A 4.825 
*END

*D_NET *366 0.00145323
*CONN
*I *4142:C I *D sky130_fd_sc_hd__and3_1
*I *4141:A I *D sky130_fd_sc_hd__inv_2
*I *4450:X O *D sky130_fd_sc_hd__dlygate4sd3_1
*CAP
1 *4142:C 0
2 *4141:A 0.000265615
3 *4450:X 0.000228821
4 *366:12 0.000494435
5 *4141:A *373:274 1.47256e-05
6 *4141:A *373:276 6.54766e-05
7 *366:12 *488:56 0.000203178
8 *366:12 *488:66 4.82919e-05
9 *4099:A *4141:A 7.53768e-05
10 *4099:A *366:12 1.26148e-05
11 *4143:B1 *4141:A 6.03947e-06
12 *4231:B1 *366:12 3.86607e-05
13 *151:16 *366:12 0
*RES
1 *4450:X *366:12 9.05 
2 *366:12 *4141:A 5.815 
3 *366:12 *4142:C 1.6 
*END

*D_NET *367 0.0053362
*CONN
*I *4139:B2 I *D sky130_fd_sc_hd__a221o_1
*I *4147:A2 I *D sky130_fd_sc_hd__a31o_1
*I *4285:A2 I *D sky130_fd_sc_hd__a2111o_1
*I *4287:B I *D sky130_fd_sc_hd__or2_1
*I *4299:A3 I *D sky130_fd_sc_hd__o31a_2
*I *4451:X O *D sky130_fd_sc_hd__dlygate4sd3_1
*CAP
1 *4139:B2 7.87812e-05
2 *4147:A2 2.09808e-05
3 *4285:A2 0.000215953
4 *4287:B 0
5 *4299:A3 4.1511e-05
6 *4451:X 0
7 *367:22 0.000736333
8 *367:14 0.00125723
9 *367:6 0.000654191
10 *367:4 0.000365538
11 *4285:A2 *4101:A 0
12 *4285:A2 *4300:B 0
13 *4285:A2 *394:43 0
14 *4285:A2 *423:10 5.20968e-05
15 *4299:A3 *4299:B1 8.26509e-05
16 *4299:A3 *427:12 0.000133631
17 *367:6 *4147:A3 0.000160213
18 *367:14 *423:10 4.43871e-06
19 *367:22 *4300:A 7.60965e-05
20 *367:22 *427:12 0.000358657
21 *528:DIODE *4139:B2 2.65402e-05
22 *4126:B *4285:A2 7.55391e-05
23 *4132:A3 *4285:A2 4.5783e-05
24 *4132:A3 *367:14 4.13092e-05
25 *4139:B1 *4139:B2 0.000163019
26 *4297:B *4139:B2 5.39961e-05
27 *4298:B *4139:B2 4.82863e-05
28 *4298:B *367:6 8.40269e-05
29 *4299:A2 *4299:A3 2.29156e-05
30 *4299:A2 *367:22 0
31 *4337:B1 *367:14 0.000141467
32 *4337:B1 *367:22 7.2491e-05
33 *4507:A *367:14 8.40213e-05
34 *100:123 *4285:A2 0
35 *100:127 *4285:A2 0
36 *100:127 *367:14 0
37 *135:8 *4139:B2 5.92269e-05
38 *226:21 *367:14 0
39 *226:21 *367:22 1.80164e-05
40 *226:32 *367:22 0.000102919
41 *265:57 *4285:A2 4.43871e-06
42 *362:47 *367:6 1.52352e-05
43 *362:47 *367:14 1.9872e-05
44 *362:70 *367:14 1.87977e-05
*RES
1 *4451:X *367:4 1.6 
2 *367:4 *367:6 4.59 
3 *367:6 *367:14 8.165 
4 *367:14 *367:22 11.795 
5 *367:22 *4299:A3 3.46 
6 *367:22 *4287:B 1.6 
7 *367:14 *4285:A2 7.275 
8 *367:6 *4147:A2 1.96 
9 *367:4 *4139:B2 8.18 
*END

*D_NET *368 0.000998294
*CONN
*I *4339:D I *D sky130_fd_sc_hd__dfxtp_1
*I *4452:X O *D sky130_fd_sc_hd__dlygate4sd3_1
*CAP
1 *4339:D 0.000353023
2 *4452:X 0.000353023
3 *4339:D *4155:A 0.000109419
4 *4339:D *4612:A 4.41538e-05
5 uart_txd *4339:D 0
6 *4155:B *4339:D 4.43871e-06
7 *4156:C1 *4339:D 0.000134236
8 *4403:CLK *4339:D 0
9 *12:9 *4339:D 0
10 *265:130 *4339:D 0
*RES
1 *4452:X *4339:D 13.4288 
*END

*D_NET *369 0.000856254
*CONN
*I *4274:A I *D sky130_fd_sc_hd__and4_1
*I *4275:A1 I *D sky130_fd_sc_hd__o21ai_1
*I *4453:X O *D sky130_fd_sc_hd__dlygate4sd3_1
*CAP
1 *4274:A 0
2 *4275:A1 7.77117e-06
3 *4453:X 0.000358458
4 *369:12 0.000366229
5 *369:12 *4274:B 4.43871e-06
6 *4275:B1 *4275:A1 4.99619e-05
7 *4390:CLK *369:12 0
8 *4454:A *369:12 0
9 *262:8 *4275:A1 4.82863e-05
10 *275:6 *369:12 2.11084e-05
*RES
1 *4453:X *369:12 10.79 
2 *369:12 *4275:A1 2.05 
3 *369:12 *4274:A 1.6 
*END

*D_NET *370 5.97061e-05
*CONN
*I *4276:B I *D sky130_fd_sc_hd__nor2_1
*I *4454:X O *D sky130_fd_sc_hd__dlygate4sd3_1
*CAP
1 *4276:B 2.9853e-05
2 *4454:X 2.9853e-05
*RES
1 *4454:X *4276:B 3.65 
*END

*D_NET *371 0.00073027
*CONN
*I *4390:D I *D sky130_fd_sc_hd__dfxtp_1
*I *4455:X O *D sky130_fd_sc_hd__dlygate4sd3_1
*CAP
1 *4390:D 0.000271255
2 *4455:X 0.000271255
3 *4454:A *4390:D 0.000187759
*RES
1 *4455:X *4390:D 11.8088 
*END

*D_NET *372 0.00135653
*CONN
*I *4297:A I *D sky130_fd_sc_hd__xor2_1
*I *4125:D_N I *D sky130_fd_sc_hd__or4b_1
*I *4137:A I *D sky130_fd_sc_hd__or4b_1
*I *4456:X O *D sky130_fd_sc_hd__dlygate4sd3_1
*CAP
1 *4297:A 0
2 *4125:D_N 4.83983e-05
3 *4137:A 8.61477e-06
4 *4456:X 4.05038e-05
5 *372:21 0.000187855
6 *372:6 0.000188575
7 *527:DIODE *372:6 8.8266e-05
8 *4137:B *372:6 8.69098e-05
9 *4294:B *4137:A 4.77719e-05
10 *4294:B *372:6 9.96033e-05
11 *4297:B *372:21 9.17776e-05
12 *100:135 *4125:D_N 0.000123592
13 *100:135 *372:21 0.000148893
14 *135:8 *372:21 0.000110486
15 *225:10 *372:21 0
16 *310:14 *4137:A 4.89295e-05
17 *310:14 *372:6 3.6355e-05
*RES
1 *4456:X *372:6 3.43 
2 *372:6 *4137:A 2.05 
3 *372:6 *372:21 7.375 
4 *372:21 *4125:D_N 2.74 
5 *372:21 *4297:A 1.6 
*END

*D_NET *373 0.0334418
*CONN
*I *551:DIODE I *D sky130_fd_sc_hd__diode_2
*I *4201:B1 I *D sky130_fd_sc_hd__o211a_1
*I *4203:B1 I *D sky130_fd_sc_hd__o211a_1
*I *552:DIODE I *D sky130_fd_sc_hd__diode_2
*I *573:DIODE I *D sky130_fd_sc_hd__diode_2
*I *559:DIODE I *D sky130_fd_sc_hd__diode_2
*I *523:DIODE I *D sky130_fd_sc_hd__diode_2
*I *556:DIODE I *D sky130_fd_sc_hd__diode_2
*I *530:DIODE I *D sky130_fd_sc_hd__diode_2
*I *4142:B I *D sky130_fd_sc_hd__and3_1
*I *4143:A2 I *D sky130_fd_sc_hd__a31o_1
*I *536:DIODE I *D sky130_fd_sc_hd__diode_2
*I *4152:A2 I *D sky130_fd_sc_hd__a32o_1
*I *529:DIODE I *D sky130_fd_sc_hd__diode_2
*I *4145:A1 I *D sky130_fd_sc_hd__a22o_1
*I *532:DIODE I *D sky130_fd_sc_hd__diode_2
*I *4241:C1 I *D sky130_fd_sc_hd__o211a_1
*I *553:DIODE I *D sky130_fd_sc_hd__diode_2
*I *554:DIODE I *D sky130_fd_sc_hd__diode_2
*I *4205:B1 I *D sky130_fd_sc_hd__o211a_1
*I *4207:B1 I *D sky130_fd_sc_hd__o211a_1
*I *4100:A I *D sky130_fd_sc_hd__inv_4
*I *4284:A2 I *D sky130_fd_sc_hd__a31o_1
*I *4190:B I *D sky130_fd_sc_hd__and3_1
*I *550:DIODE I *D sky130_fd_sc_hd__diode_2
*I *4189:C1 I *D sky130_fd_sc_hd__o211a_1
*I *549:DIODE I *D sky130_fd_sc_hd__diode_2
*I *535:DIODE I *D sky130_fd_sc_hd__diode_2
*I *4151:A1 I *D sky130_fd_sc_hd__a22o_1
*I *4435:A I *D sky130_fd_sc_hd__buf_4
*I *572:DIODE I *D sky130_fd_sc_hd__diode_2
*I *4436:X O *D sky130_fd_sc_hd__buf_4
*CAP
1 *551:DIODE 8.98353e-05
2 *4201:B1 1.85694e-05
3 *4203:B1 0.000107521
4 *552:DIODE 0
5 *573:DIODE 0
6 *559:DIODE 0
7 *523:DIODE 0
8 *556:DIODE 0
9 *530:DIODE 9.77243e-05
10 *4142:B 0
11 *4143:A2 3.55506e-05
12 *536:DIODE 0
13 *4152:A2 0.000264586
14 *529:DIODE 3.72196e-05
15 *4145:A1 4.76117e-05
16 *532:DIODE 6.05552e-05
17 *4241:C1 0
18 *553:DIODE 0.00010781
19 *554:DIODE 3.38751e-05
20 *4205:B1 0.000124675
21 *4207:B1 0
22 *4100:A 0.000172945
23 *4284:A2 0
24 *4190:B 0
25 *550:DIODE 0
26 *4189:C1 1.65033e-05
27 *549:DIODE 0.000251014
28 *535:DIODE 3.98087e-05
29 *4151:A1 0.000108367
30 *4435:A 0
31 *572:DIODE 0.000509316
32 *4436:X 0.000304886
33 *373:359 0.000444242
34 *373:355 0.00081433
35 *373:343 0.000877385
36 *373:276 0.000459764
37 *373:274 0.000389595
38 *373:272 0.000217314
39 *373:270 0.000229705
40 *373:257 0.000495474
41 *373:244 0.000475107
42 *373:231 0.000225264
43 *373:222 0.000266887
44 *373:216 0.00100576
45 *373:192 0.000167821
46 *373:179 0.000645146
47 *373:173 0.00136257
48 *373:164 0.000227875
49 *373:145 0.00117113
50 *373:132 0.00080779
51 *373:74 0.000280074
52 *373:72 0.000417042
53 *373:70 6.88557e-05
54 *373:68 4.38144e-05
55 *373:66 7.82631e-05
56 *373:64 0.000422364
57 *373:60 0.00106986
58 *373:52 0.00083979
59 *373:48 0.00121879
60 *373:27 0.000845829
61 *373:12 0.000879311
62 *530:DIODE *488:56 4.85494e-05
63 *572:DIODE *4156:B1 8.8266e-05
64 *572:DIODE *4344:D 0
65 *572:DIODE *4567:A 7.21296e-06
66 *4100:A *4206:A 1.19928e-05
67 *4100:A *4206:B 5.4003e-05
68 *4151:A1 *4151:B2 8.57024e-05
69 *4205:B1 *4205:A1 0.0001169
70 *373:12 *4160:B1 0.000148975
71 *373:12 *4346:D 5.39718e-05
72 *373:12 *4567:A 1.82563e-05
73 *373:60 *4156:B1 8.65905e-05
74 *373:60 *4180:B 9.71067e-05
75 *373:64 *4284:A1 4.82919e-05
76 *373:145 *4284:A1 1.74678e-05
77 *373:192 *4205:A1 1.81522e-05
78 *373:192 *4207:A1 0
79 *373:216 *4373:D 0.000166946
80 *373:216 *4378:D 9.20132e-05
81 *373:216 *460:109 0
82 *373:231 *4241:A2 9.30717e-05
83 *373:257 *4136:A 2.16917e-05
84 *373:257 *460:25 2.63122e-05
85 *373:257 *460:42 3.98952e-05
86 *373:257 *488:20 0.000162318
87 *373:270 *460:42 3.77368e-05
88 *373:270 *488:66 0.000158297
89 *373:343 *4160:A1 0.000191097
90 *373:343 *4181:B1 0.000111012
91 *373:343 *491:12 4.39353e-05
92 *373:355 *4184:A1 9.78082e-05
93 *373:359 *4200:A 4.82863e-05
94 uart_txd *572:DIODE 0.000150284
95 *555:DIODE *373:173 0
96 *567:DIODE *373:257 6.10014e-05
97 *4099:A *530:DIODE 4.99619e-05
98 *4099:A *373:272 4.0843e-05
99 *4099:A *373:274 6.27114e-05
100 *4124:B2 *373:222 0
101 *4141:A *373:274 1.47256e-05
102 *4141:A *373:276 6.54766e-05
103 *4143:B1 *373:274 8.8266e-05
104 *4145:A2 *4145:A1 4.66108e-05
105 *4145:A2 *373:257 0.000556606
106 *4151:A2 *535:DIODE 2.49909e-05
107 *4151:A2 *4151:A1 9.90189e-05
108 *4151:A2 *373:66 0.000177568
109 *4151:A2 *373:68 6.45236e-05
110 *4151:A2 *373:70 6.68849e-05
111 *4151:A2 *373:72 0.000108329
112 *4151:A2 *373:74 0.000531995
113 *4151:A2 *373:132 4.10132e-05
114 *4152:A3 *4152:A2 0.00010626
115 *4152:A3 *373:276 3.31103e-05
116 *4152:B1 *4152:A2 1.0284e-05
117 *4152:B1 *373:244 2.92496e-05
118 *4156:C1 *572:DIODE 0.000264925
119 *4167:A2 *4100:A 0
120 *4172:A1 *373:48 0.000272978
121 *4172:B1 *373:60 4.43871e-06
122 *4173:A1 *373:48 0.000122797
123 *4173:S *373:48 0.000196045
124 *4177:A *373:343 0
125 *4178:C1 *551:DIODE 8.65961e-05
126 *4179:A0 *373:343 7.23533e-05
127 *4181:A2 *551:DIODE 3.64998e-06
128 *4181:A2 *373:355 6.07575e-06
129 *4187:C1 *373:60 9.21168e-05
130 *4187:C1 *373:64 3.00381e-05
131 *4189:A1 *4189:C1 4.66108e-05
132 *4189:A1 *373:145 0
133 *4189:A2 *373:66 3.77199e-05
134 *4189:A2 *373:68 2.87867e-05
135 *4189:A2 *373:70 9.3062e-06
136 *4201:A2 *4201:B1 9.53428e-06
137 *4201:C1 *4201:B1 0
138 *4201:C1 *373:359 9.11349e-05
139 *4203:C1 *4203:B1 4.99619e-05
140 *4204:B *553:DIODE 0.000149765
141 *4204:B *554:DIODE 4.82863e-05
142 *4205:A2 *373:164 0.000229518
143 *4205:A2 *373:173 8.7152e-06
144 *4205:C1 *4205:B1 0
145 *4207:C1 *4100:A 0.000122331
146 *4207:C1 *373:164 0.000270062
147 *4227:B *373:270 3.86529e-05
148 *4284:B1 *373:64 9.4087e-05
149 *4352:CLK *373:48 4.66108e-05
150 *4352:D *373:48 1.43717e-05
151 *4365:D *373:164 0
152 *4373:CLK *373:216 0.000370284
153 *4375:CLK *529:DIODE 1.83847e-05
154 *4380:CLK *4145:A1 2.30292e-05
155 *4436:A *572:DIODE 0
156 *4436:A *373:12 0
157 *4440:A *373:257 6.47594e-05
158 *4447:A *373:48 6.12852e-05
159 *4569:A *373:12 1.82563e-05
160 *4571:A *373:60 0.000117832
161 *4573:A *551:DIODE 2.11084e-05
162 *4584:A *373:60 0.000133613
163 *4599:A *373:48 5.71105e-05
164 *4600:A *373:48 0.000383317
165 *4603:A *373:74 0.000207783
166 *97:45 *4203:B1 2.31547e-05
167 *97:45 *373:173 1.0145e-05
168 *97:45 *373:216 0.000123515
169 *97:62 *4203:B1 7.68886e-05
170 *97:62 *373:355 1.33293e-05
171 *97:62 *373:359 8.45738e-05
172 *97:77 *373:343 9.50342e-06
173 *97:77 *373:355 0.000375389
174 *100:57 *4100:A 0.000182349
175 *100:66 *4100:A 4.82919e-05
176 *100:79 *4100:A 0.00012657
177 *100:79 *373:132 1.1561e-05
178 *100:79 *373:145 0.000607673
179 *100:90 *4189:C1 2.49909e-05
180 *100:90 *373:70 5.23362e-05
181 *100:90 *373:72 0.000114492
182 *100:90 *373:74 4.21314e-05
183 *100:106 *373:74 0.000143266
184 *100:291 *4100:A 2.14129e-05
185 *130:29 *549:DIODE 0.00011577
186 *131:14 *373:257 4.66108e-05
187 *133:42 *373:66 5.2089e-05
188 *133:42 *373:132 3.6885e-05
189 *133:42 *373:145 3.05295e-05
190 *133:93 *373:48 0.000347895
191 *134:64 *373:257 0.000345353
192 *134:107 *373:12 0.000218658
193 *134:111 *373:12 4.82919e-05
194 *140:38 *373:222 4.27658e-05
195 *140:51 *373:222 6.44307e-05
196 *140:51 *373:231 0.000105607
197 *140:51 *373:244 2.04147e-05
198 *142:28 *373:48 0
199 *142:28 *373:343 0
200 *143:31 *373:60 3.05807e-05
201 *143:80 *373:64 4.58257e-05
202 *144:6 *549:DIODE 1.47347e-05
203 *144:10 *4151:A1 3.57846e-05
204 *144:10 *373:74 8.13399e-05
205 *144:18 *4151:A1 2.61015e-05
206 *144:122 *549:DIODE 8.40269e-05
207 *151:16 *373:270 4.24292e-06
208 *153:21 *373:60 0
209 *153:30 *373:52 0.000194694
210 *180:10 *373:216 0.0001249
211 *259:160 *373:257 0.000187409
212 *263:18 *373:222 8.38856e-05
213 *263:18 *373:231 2.24992e-05
214 *267:14 *373:343 0
215 *267:14 *373:355 3.77455e-05
216 *290:29 *373:231 7.36562e-05
217 *290:29 *373:244 4.75576e-05
218 *350:14 *4151:A1 0
219 *356:18 *532:DIODE 8.49205e-05
220 *362:6 *373:27 4.82863e-05
221 *362:10 *572:DIODE 5.92191e-05
222 *362:94 *373:48 9.33501e-05
223 *362:107 *373:48 0.000178314
224 *362:117 *373:60 0.000522406
225 *362:137 *373:48 0.00011686
226 *362:137 *373:343 0.000224429
227 *362:145 *551:DIODE 3.0807e-05
*RES
1 *4436:X *373:12 10.155 
2 *373:12 *572:DIODE 13.185 
3 *373:12 *373:27 3.14 
4 *373:27 *4435:A 1.6 
5 *373:27 *373:48 19.925 
6 *373:48 *373:52 3.83 
7 *373:52 *373:60 15.475 
8 *373:60 *373:64 6.245 
9 *373:64 *373:66 2.145 
10 *373:66 *373:68 0.87 
11 *373:68 *373:70 0.87 
12 *373:70 *373:72 1.38 
13 *373:72 *373:74 6.225 
14 *373:74 *4151:A1 6.075 
15 *373:74 *535:DIODE 4.05 
16 *373:72 *549:DIODE 6.81 
17 *373:70 *4189:C1 4.05 
18 *373:68 *550:DIODE 3.6 
19 *373:66 *4190:B 3.6 
20 *373:64 *373:132 0.87 
21 *373:132 *4284:A2 3.6 
22 *373:132 *373:145 12.725 
23 *373:145 *4100:A 10.19 
24 *373:145 *373:164 7.715 
25 *373:164 *4207:B1 3.6 
26 *373:164 *373:173 0.2325 
27 *373:173 *373:179 1.79547 
28 *373:179 *4205:B1 6.1275 
29 *373:179 *373:192 2.4875 
30 *373:192 *554:DIODE 2.05 
31 *373:192 *553:DIODE 3.085 
32 *373:173 *373:216 15.1175 
33 *373:216 *373:222 5.36 
34 *373:222 *4241:C1 3.6 
35 *373:222 *373:231 3.42 
36 *373:231 *532:DIODE 4.395 
37 *373:231 *373:244 3.125 
38 *373:244 *4145:A1 2.395 
39 *373:244 *373:257 13.175 
40 *373:257 *529:DIODE 4.05 
41 *373:257 *373:270 4.145 
42 *373:270 *373:272 0.795 
43 *373:272 *373:274 2.175 
44 *373:274 *373:276 2.52 
45 *373:276 *4152:A2 5.545 
46 *373:276 *536:DIODE 1.6 
47 *373:274 *4143:A2 2.215 
48 *373:272 *4142:B 1.6 
49 *373:270 *530:DIODE 3.445 
50 *373:216 *556:DIODE 1.6 
51 *373:145 *523:DIODE 1.6 
52 *373:60 *559:DIODE 1.6 
53 *373:52 *573:DIODE 1.6 
54 *373:48 *373:343 9.545 
55 *373:343 *373:355 11.905 
56 *373:355 *373:359 4.605 
57 *373:359 *552:DIODE 1.6 
58 *373:359 *4203:B1 3.805 
59 *373:355 *4201:B1 1.96 
60 *373:343 *551:DIODE 3.43 
*END

*D_NET *374 0.000318787
*CONN
*I *4147:A3 I *D sky130_fd_sc_hd__a31o_1
*I *4457:X O *D sky130_fd_sc_hd__dlygate4sd3_1
*CAP
1 *4147:A3 3.30163e-05
2 *4457:X 3.30163e-05
3 *362:47 *4147:A3 9.2541e-05
4 *367:6 *4147:A3 0.000160213
*RES
1 *4457:X *4147:A3 4.685 
*END

*D_NET *375 0.000899223
*CONN
*I *4342:D I *D sky130_fd_sc_hd__dfxtp_1
*I *4458:X O *D sky130_fd_sc_hd__dlygate4sd3_1
*CAP
1 *4342:D 0.000189648
2 *4458:X 0.000189648
3 *4342:D *4156:B1 7.53557e-05
4 *4342:D *4285:C1 0.000158536
5 *4337:B1 *4342:D 0.000139933
6 *265:10 *4342:D 2.92496e-05
7 *265:12 *4342:D 0.000116853
*RES
1 *4458:X *4342:D 11.04 
*END

*D_NET *376 0.0010393
*CONN
*I *4266:A1 I *D sky130_fd_sc_hd__o21ai_1
*I *4265:A I *D sky130_fd_sc_hd__and4_1
*I *4459:X O *D sky130_fd_sc_hd__dlygate4sd3_1
*CAP
1 *4266:A1 0.000130271
2 *4265:A 0
3 *4459:X 7.40864e-05
4 *376:6 0.000204358
5 *4266:A1 *4265:B 0
6 *4107:D_N *4266:A1 0.000124895
7 *4107:D_N *376:6 4.99619e-05
8 *4265:D *376:6 0.000124895
9 *140:100 *4266:A1 0
10 *213:8 *376:6 3.00381e-05
11 *213:49 *376:6 6.52265e-05
12 *283:58 *4266:A1 0.000113237
13 *283:58 *376:6 0.000122331
*RES
1 *4459:X *376:6 4.12 
2 *376:6 *4265:A 1.6 
3 *376:6 *4266:A1 8.375 
*END

*D_NET *377 0.000680163
*CONN
*I *4267:B I *D sky130_fd_sc_hd__nor2_1
*I *4461:X O *D sky130_fd_sc_hd__dlygate4sd3_1
*CAP
1 *4267:B 0.000247537
2 *4461:X 0.000247537
3 *4267:B *4264:B 7.65329e-05
4 *4263:B1 *4267:B 5.94465e-05
5 *4267:A *4267:B 0
6 *4462:A *4267:B 4.91097e-05
*RES
1 *4461:X *4267:B 11.76 
*END

*D_NET *378 0.00045993
*CONN
*I *4387:D I *D sky130_fd_sc_hd__dfxtp_1
*I *4462:X O *D sky130_fd_sc_hd__dlygate4sd3_1
*CAP
1 *4387:D 0.000229965
2 *4462:X 0.000229965
3 *4267:A *4387:D 0
*RES
1 *4462:X *4387:D 10.6987 
*END

*D_NET *379 0.00413094
*CONN
*I *4232:B I *D sky130_fd_sc_hd__and4_1
*I *4231:A1 I *D sky130_fd_sc_hd__a31o_1
*I *4229:A I *D sky130_fd_sc_hd__nand2_1
*I *4228:A I *D sky130_fd_sc_hd__or2_1
*I *4463:X O *D sky130_fd_sc_hd__dlygate4sd3_1
*CAP
1 *4232:B 0
2 *4231:A1 0.000656357
3 *4229:A 3.99324e-05
4 *4228:A 0
5 *4463:X 0.000311498
6 *379:32 0.00082679
7 *379:12 3.99324e-05
8 *379:10 0.000481931
9 *379:10 *4232:C 4.9968e-05
10 *379:32 *4232:C 0.000312771
11 *4140:A *4231:A1 0.000312964
12 *4140:C *4231:A1 9.01848e-05
13 *4140:D_N *4231:A1 4.60584e-05
14 *4230:C *4229:A 0.000115912
15 *4231:B1 *4231:A1 0.000120695
16 *4448:A *379:32 0
17 *4559:A *4231:A1 0.000238137
18 *177:46 *4229:A 8.23457e-05
19 *177:46 *379:10 0.000113262
20 *177:59 *4229:A 4.74817e-05
21 *177:59 *379:10 0.000106548
22 *177:72 *379:10 0.000138175
*RES
1 *4463:X *379:10 8.115 
2 *379:10 *379:12 2 
3 *379:12 *4228:A 1.6 
4 *379:12 *4229:A 2.9275 
5 *379:10 *379:32 5.675 
6 *379:32 *4231:A1 15.02 
7 *379:32 *4232:B 1.6 
*END

*D_NET *380 0.00184812
*CONN
*I *4235:A I *D sky130_fd_sc_hd__nand2_1
*I *4234:A I *D sky130_fd_sc_hd__or2_1
*I *4464:X O *D sky130_fd_sc_hd__dlygate4sd3_1
*CAP
1 *4235:A 0
2 *4234:A 0.00021959
3 *4464:X 0.000274943
4 *380:10 0.000494534
5 *4236:A *4234:A 2.16917e-05
6 *4236:C *4234:A 0.000181622
7 *4238:A *4234:A 0.000275548
8 *4238:B *4234:A 0.000201503
9 *4376:D *4234:A 5.57779e-05
10 *4376:D *380:10 0
11 *4464:A *380:10 0
12 *192:16 *4234:A 0.000109453
13 *192:57 *4234:A 9.26907e-06
14 *192:57 *380:10 4.18603e-06
15 *270:10 *380:10 0
*RES
1 *4464:X *380:10 7.725 
2 *380:10 *4234:A 10.635 
3 *380:10 *4235:A 3.6 
*END

*D_NET *381 0.0019073
*CONN
*I *4256:A I *D sky130_fd_sc_hd__and4_1
*I *4257:A1 I *D sky130_fd_sc_hd__o21ai_1
*I *4465:X O *D sky130_fd_sc_hd__dlygate4sd3_1
*CAP
1 *4256:A 0.000383113
2 *4257:A1 0.000207834
3 *4465:X 0
4 *381:4 0.000590946
5 *4253:B *4256:A 8.53113e-06
6 *4257:A2 *4256:A 0.000268271
7 *4257:A2 *4257:A1 1.61831e-05
8 *4420:A *4257:A1 3.70488e-05
9 *4465:A *4256:A 6.96579e-05
10 *4466:A *4257:A1 0
11 *105:14 *4256:A 0.000266605
12 *105:14 *4257:A1 0
13 *282:6 *4256:A 8.88523e-06
14 *282:19 *4257:A1 5.02217e-05
*RES
1 *4465:X *381:4 1.6 
2 *381:4 *4257:A1 9.155 
3 *381:4 *4256:A 12.32 
*END

*D_NET *382 0.0006291
*CONN
*I *4258:B I *D sky130_fd_sc_hd__nor2_1
*I *4466:X O *D sky130_fd_sc_hd__dlygate4sd3_1
*CAP
1 *4258:B 0.000150382
2 *4466:X 0.000150382
3 *4258:B *434:20 4.85494e-05
4 *4467:A *4258:B 0.000279787
*RES
1 *4466:X *4258:B 6.755 
*END

*D_NET *383 0.000244516
*CONN
*I *4384:D I *D sky130_fd_sc_hd__dfxtp_1
*I *4467:X O *D sky130_fd_sc_hd__dlygate4sd3_1
*CAP
1 *4384:D 9.40877e-05
2 *4467:X 9.40877e-05
3 *4466:A *4384:D 0
4 *207:19 *4384:D 5.63405e-05
*RES
1 *4467:X *4384:D 8.97375 
*END

*D_NET *384 0.000654219
*CONN
*I *4282:B I *D sky130_fd_sc_hd__or2_1
*I *4437:X O *D sky130_fd_sc_hd__dlygate4sd3_1
*CAP
1 *4282:B 0.000117162
2 *4437:X 0.000117162
3 *4282:B *4329:B 3.09233e-05
4 *4168:B1 *4282:B 0.000208255
5 *4329:A *4282:B 1.19928e-05
6 *4519:A *4282:B 1.17309e-05
7 *4546:A *4282:B 5.83121e-06
8 *100:20 *4282:B 8.57024e-05
9 *252:12 *4282:B 2.23407e-05
10 *252:33 *4282:B 4.31189e-05
*RES
1 *4437:X *4282:B 10.335 
*END

*D_NET *385 0.00219074
*CONN
*I *4254:A1 I *D sky130_fd_sc_hd__o21ai_1
*I *4256:B I *D sky130_fd_sc_hd__and4_1
*I *4253:A I *D sky130_fd_sc_hd__and3_1
*I *4468:X O *D sky130_fd_sc_hd__dlygate4sd3_1
*CAP
1 *4254:A1 0.00026348
2 *4256:B 0.000213586
3 *4253:A 0
4 *4468:X 0
5 *385:12 0.000501632
6 *385:4 0.000551526
7 *564:DIODE *4254:A1 0.000226387
8 *4253:C *4256:B 7.32729e-05
9 *4255:A *4256:B 2.75229e-05
10 *4256:C *4256:B 4.82863e-05
11 *4256:D *4256:B 3.63661e-05
12 *4383:CLK *385:12 0
13 *4469:A *4254:A1 4.82919e-05
14 *134:24 *385:12 0
15 *200:37 *4256:B 1.68868e-05
16 *259:116 *4254:A1 8.43946e-05
17 *281:10 *385:12 9.49203e-05
18 *281:23 *385:12 4.18603e-06
*RES
1 *4468:X *385:4 1.6 
2 *385:4 *385:12 8.815 
3 *385:12 *4253:A 1.6 
4 *385:12 *4256:B 4.48 
5 *385:4 *4254:A1 6.655 
*END

*D_NET *386 0.000721302
*CONN
*I *4255:B I *D sky130_fd_sc_hd__nor2_1
*I *4469:X O *D sky130_fd_sc_hd__dlygate4sd3_1
*CAP
1 *4255:B 0.000174781
2 *4469:X 0.000174781
3 *564:DIODE *4255:B 8.65905e-05
4 *4252:A_N *4255:B 0
5 *4382:D *4255:B 9.6227e-05
6 *4470:A *4255:B 0.00011852
7 *200:37 *4255:B 7.04021e-05
*RES
1 *4469:X *4255:B 11.415 
*END

*D_NET *387 0.000203438
*CONN
*I *4383:D I *D sky130_fd_sc_hd__dfxtp_1
*I *4470:X O *D sky130_fd_sc_hd__dlygate4sd3_1
*CAP
1 *4383:D 7.5278e-05
2 *4470:X 7.5278e-05
3 *4383:D *434:20 5.28825e-05
*RES
1 *4470:X *4383:D 4.56875 
*END

*D_NET *388 0.00297534
*CONN
*I *4305:A I *D sky130_fd_sc_hd__and2_1
*I *4127:A I *D sky130_fd_sc_hd__or4b_1
*I *4304:B1 I *D sky130_fd_sc_hd__a21o_1
*I *4472:X O *D sky130_fd_sc_hd__dlygate4sd3_1
*CAP
1 *4305:A 0.000104705
2 *4127:A 0
3 *4304:B1 0.000197723
4 *4472:X 0.000259217
5 *388:23 0.000251669
6 *388:8 0.000603904
7 *4304:B1 *4307:C 0.000103185
8 *4305:A *4127:C 4.82919e-05
9 *4305:A *4305:B 0.000157602
10 *388:23 *407:12 9.30787e-05
11 *4127:D_N *4305:A 0.000122325
12 *4127:D_N *388:23 8.40269e-05
13 *4309:B1 *4304:B1 0
14 *4309:C1 *4304:B1 0.000204449
15 *4474:A *4304:B1 0
16 *144:18 *4305:A 6.11009e-05
17 *144:24 *388:23 0.000219005
18 *144:26 *4304:B1 0.000237369
19 *144:26 *388:23 2.92496e-05
20 *144:60 *388:8 4.66108e-05
21 *234:26 *388:8 9.58651e-05
22 *238:14 *388:23 3.77112e-05
23 *264:41 *4304:B1 1.82476e-05
24 *353:10 *388:23 0
25 *353:29 *4304:B1 0
*RES
1 *4472:X *388:8 6.81 
2 *388:8 *4304:B1 9.06 
3 *388:8 *388:23 5.705 
4 *388:23 *4127:A 1.6 
5 *388:23 *4305:A 8.63 
*END

*D_NET *389 0.000495779
*CONN
*I *4307:C I *D sky130_fd_sc_hd__and3b_1
*I *4473:X O *D sky130_fd_sc_hd__dlygate4sd3_1
*CAP
1 *4307:C 0.000124563
2 *4473:X 0.000124563
3 *4304:B1 *4307:C 0.000103185
4 *4309:B1 *4307:C 0
5 *264:41 *4307:C 0.000143468
*RES
1 *4473:X *4307:C 10.14 
*END

*D_NET *390 0.00032653
*CONN
*I *4406:D I *D sky130_fd_sc_hd__dfxtp_1
*I *4474:X O *D sky130_fd_sc_hd__dlygate4sd3_1
*CAP
1 *4406:D 0.000123912
2 *4474:X 0.000123912
3 *4406:D *4303:A1 1.43717e-05
4 *4304:A2 *4406:D 4.99619e-05
5 *4406:CLK *4406:D 1.43717e-05
6 *4474:A *4406:D 0
*RES
1 *4474:X *4406:D 8.91375 
*END

*D_NET *391 0.00133513
*CONN
*I *4271:A I *D sky130_fd_sc_hd__and3_1
*I *4272:A1 I *D sky130_fd_sc_hd__o21ai_1
*I *4274:B I *D sky130_fd_sc_hd__and4_1
*I *4475:X O *D sky130_fd_sc_hd__dlygate4sd3_1
*CAP
1 *4271:A 0
2 *4272:A1 3.92435e-05
3 *4274:B 0.000163561
4 *4475:X 5.58786e-05
5 *391:25 0.000146242
6 *391:6 0.000326438
7 *4272:A2 *4272:A1 4.99619e-05
8 *4274:C *4274:B 0.000139245
9 *4274:D *391:25 0.000183731
10 *4275:A2 *4274:B 0
11 *4476:A *391:25 0
12 *213:49 *391:25 3.09164e-05
13 *274:8 *4274:B 0.000119756
14 *274:8 *391:6 7.57202e-05
15 *275:10 *391:25 0
16 *369:12 *4274:B 4.43871e-06
*RES
1 *4475:X *391:6 2.395 
2 *391:6 *4274:B 8.375 
3 *391:6 *391:25 6.4 
4 *391:25 *4272:A1 2.41 
5 *391:25 *4271:A 1.6 
*END

*D_NET *392 7.95234e-05
*CONN
*I *4273:B I *D sky130_fd_sc_hd__nor2_1
*I *4476:X O *D sky130_fd_sc_hd__dlygate4sd3_1
*CAP
1 *4273:B 1.09854e-05
2 *4476:X 1.09854e-05
3 *4477:A *4273:B 2.75145e-05
4 *274:8 *4273:B 3.00381e-05
*RES
1 *4476:X *4273:B 3.65 
*END

*D_NET *393 0.000678124
*CONN
*I *4389:D I *D sky130_fd_sc_hd__dfxtp_1
*I *4477:X O *D sky130_fd_sc_hd__dlygate4sd3_1
*CAP
1 *4389:D 0.000320628
2 *4477:X 0.000320628
3 *217:10 *4389:D 3.68682e-05
*RES
1 *4477:X *4389:D 11.9137 
*END

*D_NET *394 0.00499761
*CONN
*I *4132:A2 I *D sky130_fd_sc_hd__a31o_1
*I *4285:D1 I *D sky130_fd_sc_hd__a2111o_1
*I *4101:A I *D sky130_fd_sc_hd__inv_2
*I *4300:B I *D sky130_fd_sc_hd__or3_1
*I *4299:A1 I *D sky130_fd_sc_hd__o31a_2
*I *4151:B2 I *D sky130_fd_sc_hd__a22o_1
*I *4478:X O *D sky130_fd_sc_hd__dlygate4sd3_1
*CAP
1 *4132:A2 6.27531e-05
2 *4285:D1 0.000300663
3 *4101:A 0.000172493
4 *4300:B 0.000198757
5 *4299:A1 0.000107557
6 *4151:B2 0.000376439
7 *4478:X 0
8 *394:43 0.000525506
9 *394:32 0.000251108
10 *394:30 0.00056657
11 *394:6 0.000644986
12 *394:4 0.000664807
13 *4101:A *4155:A 0.00011379
14 *4101:A *4340:D 4.51511e-05
15 *4285:D1 *4340:D 1.99679e-05
16 *4300:B *4289:A 5.66282e-05
17 *394:43 *4340:D 3.38178e-05
18 *4132:A3 *4132:A2 2.11084e-05
19 *4132:A3 *4300:B 0
20 *4132:B1 *4132:A2 1.85674e-05
21 *4151:A1 *4151:B2 8.57024e-05
22 *4151:A2 *4151:B2 2.96334e-05
23 *4285:A2 *4101:A 0
24 *4285:A2 *4300:B 0
25 *4285:A2 *394:43 0
26 *4444:A *4101:A 0
27 *4478:A *394:30 8.65961e-05
28 *4479:A *4151:B2 1.7386e-05
29 *4508:A *394:30 0.000279787
30 *100:106 *4101:A 1.08758e-05
31 *100:115 *4101:A 1.91597e-05
32 *259:42 *4285:D1 2.12979e-05
33 *264:10 *4299:A1 0
34 *265:51 *4285:D1 0.00023468
35 *265:57 *4101:A 0
36 *265:57 *4285:D1 1.61831e-05
37 *335:12 *4101:A 1.56428e-05
38 *360:20 *4299:A1 0
*RES
1 *4478:X *394:4 1.6 
2 *394:4 *394:6 1.83 
3 *394:6 *4151:B2 6.115 
4 *394:6 *4299:A1 6.98 
5 *394:4 *394:30 8.13 
6 *394:30 *394:32 2 
7 *394:32 *4300:B 6.765 
8 *394:32 *394:43 0.9975 
9 *394:43 *4101:A 6.8325 
10 *394:43 *4285:D1 8.3025 
11 *394:30 *4132:A2 2.755 
*END

*D_NET *395 0.000421487
*CONN
*I *4393:D I *D sky130_fd_sc_hd__dfxtp_1
*I *4519:X O *D sky130_fd_sc_hd__dlygate4sd3_1
*CAP
1 *4393:D 0.000210743
2 *4519:X 0.000210743
3 *261:84 *4393:D 0
*RES
1 *4519:X *4393:D 10.1888 
*END

*D_NET *396 0.000757433
*CONN
*I *4341:D I *D sky130_fd_sc_hd__dfxtp_1
*I *4479:X O *D sky130_fd_sc_hd__dlygate4sd3_1
*CAP
1 *4341:D 0.000337547
2 *4479:X 0.000337547
3 *100:106 *4341:D 8.23394e-05
4 *264:10 *4341:D 0
5 *264:82 *4341:D 0
6 *264:102 *4341:D 0
7 *360:20 *4341:D 0
*RES
1 *4479:X *4341:D 12.5737 
*END

*D_NET *397 0.000296527
*CONN
*I *4337:A1 I *D sky130_fd_sc_hd__o221a_1
*I *4480:X O *D sky130_fd_sc_hd__dlygate4sd3_1
*CAP
1 *4337:A1 2.78567e-05
2 *4480:X 2.78567e-05
3 *4337:B2 *4337:A1 0.000120407
4 *4480:A *4337:A1 0.000120407
*RES
1 *4480:X *4337:A1 4.34 
*END

*D_NET *398 0.000393237
*CONN
*I *4338:C I *D sky130_fd_sc_hd__or3_1
*I *4481:X O *D sky130_fd_sc_hd__dlygate4sd3_1
*CAP
1 *4338:C 4.11217e-05
2 *4481:X 4.11217e-05
3 *4338:A *4338:C 0.000155497
4 *4338:B *4338:C 0.000155497
*RES
1 *4481:X *4338:C 4.685 
*END

*D_NET *399 0.00338607
*CONN
*I *4418:D I *D sky130_fd_sc_hd__dfxtp_1
*I *4483:X O *D sky130_fd_sc_hd__dlygate4sd3_1
*CAP
1 *4418:D 0.00115818
2 *4483:X 0.00115818
3 *4418:D *4156:A1 5.83373e-05
4 uart_txd *4418:D 3.3814e-05
5 *538:DIODE *4418:D 4.82863e-05
6 *4139:B1 *4418:D 0.000162318
7 *4337:B2 *4418:D 8.58095e-05
8 *4337:C1 *4418:D 0.000119246
9 *4483:A *4418:D 9.20316e-05
10 *134:125 *4418:D 0.000162332
11 *265:10 *4418:D 7.56928e-05
12 *265:89 *4418:D 5.39004e-05
13 *335:55 *4418:D 8.96831e-05
14 *351:8 *4418:D 8.82557e-05
*RES
1 *4483:X *4418:D 25.1737 
*END

*D_NET *400 0.00199796
*CONN
*I *4280:A I *D sky130_fd_sc_hd__nand3_1
*I *4279:B1 I *D sky130_fd_sc_hd__a21o_1
*I *4484:X O *D sky130_fd_sc_hd__dlygate4sd3_1
*CAP
1 *4280:A 0.000301974
2 *4279:B1 0.000292239
3 *4484:X 0.000192156
4 *400:6 0.00078637
5 *4280:A *4392:D 0
6 *4281:B *4279:B1 7.23602e-05
7 *4281:B *4280:A 0
8 *4422:A *400:6 4.99619e-05
9 *4485:A *4280:A 0.000116158
10 *4598:A *4279:B1 4.40812e-05
11 *262:73 *4279:B1 0.000142663
12 *276:33 *4280:A 0
13 *277:14 *4280:A 0
*RES
1 *4484:X *400:6 3.775 
2 *400:6 *4279:B1 9.845 
3 *400:6 *4280:A 10.745 
*END

*D_NET *401 0.000191158
*CONN
*I *4281:C I *D sky130_fd_sc_hd__and3_1
*I *4485:X O *D sky130_fd_sc_hd__dlygate4sd3_1
*CAP
1 *4281:C 2.84012e-05
2 *4485:X 2.84012e-05
3 *4486:A *4281:C 2.11084e-05
4 *140:72 *4281:C 0.000113247
*RES
1 *4485:X *4281:C 4.22 
*END

*D_NET *402 0.00072333
*CONN
*I *4392:D I *D sky130_fd_sc_hd__dfxtp_1
*I *4486:X O *D sky130_fd_sc_hd__dlygate4sd3_1
*CAP
1 *4392:D 0.000361665
2 *4486:X 0.000361665
3 *4280:A *4392:D 0
4 *262:73 *4392:D 0
5 *276:23 *4392:D 0
6 *277:8 *4392:D 0
7 *277:14 *4392:D 0
*RES
1 *4486:X *4392:D 12.5737 
*END

*D_NET *403 0.0030968
*CONN
*I *4333:A I *D sky130_fd_sc_hd__nand3_1
*I *4332:B1 I *D sky130_fd_sc_hd__a21o_1
*I *4130:D_N I *D sky130_fd_sc_hd__or4bb_1
*I *4487:X O *D sky130_fd_sc_hd__dlygate4sd3_1
*CAP
1 *4333:A 0.000273623
2 *4332:B1 0.000250552
3 *4130:D_N 9.15441e-05
4 *4487:X 4.31398e-05
5 *403:10 0.000381119
6 *403:8 0.000355786
7 *4130:D_N *4130:C_N 0.000203755
8 *4130:D_N *4416:D 8.53113e-06
9 *4332:B1 *4332:A1 0.000425924
10 *4333:A *4399:D 0
11 *4333:A *471:51 0
12 *403:10 *4130:C_N 0.000108329
13 *403:10 *4416:D 9.54469e-05
14 *4332:A2 *4332:B1 9.72742e-06
15 *4334:C *4130:D_N 8.09021e-06
16 *4334:C *4333:A 7.04021e-05
17 *4334:C *403:10 9.3062e-06
18 *4336:B1 *4130:D_N 8.34348e-05
19 *4336:B1 *4333:A 0.00011398
20 *4336:B1 *403:10 2.4997e-05
21 *4487:A *4332:B1 3.95409e-05
22 *4488:A *4332:B1 0.000203178
23 *4543:A *4333:A 8.97564e-05
24 *256:10 *4333:A 0.000121714
25 *259:92 *403:8 8.49205e-05
*RES
1 *4487:X *403:8 4.395 
2 *403:8 *403:10 1.635 
3 *403:10 *4130:D_N 6.255 
4 *403:10 *4332:B1 9.24 
5 *403:8 *4333:A 10.08 
*END

*D_NET *404 0.000537256
*CONN
*I *4334:B I *D sky130_fd_sc_hd__and3_1
*I *4488:X O *D sky130_fd_sc_hd__dlygate4sd3_1
*CAP
1 *4334:B 0.000244482
2 *4488:X 0.000244482
3 *4334:B *4130:C_N 4.82919e-05
4 *4335:A1 *4334:B 0
5 *4335:A3 *4334:B 0
6 *4488:A *4334:B 0
7 *4489:A *4334:B 0
*RES
1 *4488:X *4334:B 10.56 
*END

*D_NET *405 0.000279116
*CONN
*I *4416:D I *D sky130_fd_sc_hd__dfxtp_1
*I *4489:X O *D sky130_fd_sc_hd__dlygate4sd3_1
*CAP
1 *4416:D 3.71651e-05
2 *4489:X 3.71651e-05
3 *4130:D_N *4416:D 8.53113e-06
4 *4336:B1 *4416:D 9.54469e-05
5 *4487:A *4416:D 5.36069e-06
6 *403:10 *4416:D 9.54469e-05
*RES
1 *4489:X *4416:D 8.46375 
*END

*D_NET *406 0.00120127
*CONN
*I *4164:A1 I *D sky130_fd_sc_hd__a21o_1
*I *4530:X O *D sky130_fd_sc_hd__dlygate4sd3_1
*CAP
1 *4164:A1 0.000394849
2 *4530:X 0.000394849
3 *4164:A1 *4162:A1 4.57347e-05
4 *4164:A1 *4348:D 7.06865e-05
5 *4164:A1 *4613:A 4.43591e-05
6 *4541:A *4164:A1 0.000250797
*RES
1 *4530:X *4164:A1 12.765 
*END

*D_NET *407 0.00299169
*CONN
*I *4310:B1 I *D sky130_fd_sc_hd__a31o_1
*I *4311:A I *D sky130_fd_sc_hd__and4_1
*I *4128:B I *D sky130_fd_sc_hd__nand2_1
*I *4490:X O *D sky130_fd_sc_hd__dlygate4sd3_1
*CAP
1 *4310:B1 4.30893e-05
2 *4311:A 0
3 *4128:B 0.000507423
4 *4490:X 4.93525e-05
5 *407:14 0.000592435
6 *407:12 0.000177454
7 *4128:B *4408:D 9.37731e-05
8 *4131:C *4128:B 0.000111293
9 *4306:B *4128:B 0.000203178
10 *4408:CLK *4128:B 0
11 *4491:A *4128:B 8.8266e-05
12 *4491:A *407:14 4.99619e-05
13 *144:60 *4310:B1 8.8266e-05
14 *144:60 *407:12 1.61831e-05
15 *144:68 *4128:B 0
16 *234:26 *4310:B1 5.4155e-06
17 *234:26 *407:12 4.82863e-05
18 *234:26 *407:14 0.000158072
19 *238:14 *4310:B1 4.99619e-05
20 *238:14 *407:12 4.94404e-05
21 *238:14 *407:14 0.000158066
22 *238:16 *4128:B 0.000164874
23 *238:16 *407:14 0.000114912
24 *242:14 *4128:B 0.0001249
25 *353:16 *4310:B1 4.00541e-06
26 *388:23 *407:12 9.30787e-05
*RES
1 *4490:X *407:12 7.175 
2 *407:12 *407:14 2.865 
3 *407:14 *4128:B 15.11 
4 *407:14 *4311:A 1.6 
5 *407:12 *4310:B1 3.01 
*END

*D_NET *408 0.00122121
*CONN
*I *4312:C I *D sky130_fd_sc_hd__and3b_1
*I *4491:X O *D sky130_fd_sc_hd__dlygate4sd3_1
*CAP
1 *4312:C 0.00048599
2 *4491:X 0.00048599
3 *4334:A *4312:C 0.000249234
4 *4492:A *4312:C 0
*RES
1 *4491:X *4312:C 14.01 
*END

*D_NET *409 0.000486877
*CONN
*I *4408:D I *D sky130_fd_sc_hd__dfxtp_1
*I *4492:X O *D sky130_fd_sc_hd__dlygate4sd3_1
*CAP
1 *4408:D 0.000194796
2 *4492:X 0.000194796
3 *4128:B *4408:D 9.37731e-05
4 *4491:A *4408:D 0
5 *144:68 *4408:D 3.51254e-06
*RES
1 *4492:X *4408:D 10.1888 
*END

*D_NET *410 0.00200712
*CONN
*I *4265:B I *D sky130_fd_sc_hd__and4_1
*I *4262:A I *D sky130_fd_sc_hd__and3_1
*I *4263:A1 I *D sky130_fd_sc_hd__o21ai_1
*I *4494:X O *D sky130_fd_sc_hd__dlygate4sd3_1
*CAP
1 *4265:B 0.000229961
2 *4262:A 0
3 *4263:A1 6.14003e-05
4 *4494:X 0.000104685
5 *410:14 0.000234148
6 *410:8 0.000507394
7 *4107:D_N *4265:B 5.56629e-05
8 *4120:D_N *4265:B 3.05646e-05
9 *4265:D *4263:A1 1.54318e-05
10 *4266:A1 *4265:B 0
11 *4266:A2 *4265:B 0
12 *4266:A2 *410:8 0.000163204
13 *4266:A2 *410:14 5.6361e-05
14 *4495:A *4263:A1 9.28013e-05
15 *4496:A *410:14 2.49909e-05
16 *140:100 *4265:B 0
17 *140:108 *4265:B 0
18 *140:108 *410:14 0
19 *207:36 *4263:A1 6.28687e-05
20 *213:49 *4265:B 3.09233e-05
21 *283:23 *4263:A1 0
22 *283:23 *410:14 9.31901e-05
23 *283:34 *4265:B 0.000235001
24 *283:34 *410:14 8.53113e-06
*RES
1 *4494:X *410:8 5.085 
2 *410:8 *410:14 4.955 
3 *410:14 *4263:A1 7.235 
4 *410:14 *4262:A 1.6 
5 *410:8 *4265:B 8.145 
*END

*D_NET *411 0.000866398
*CONN
*I *4264:B I *D sky130_fd_sc_hd__nor2_1
*I *4495:X O *D sky130_fd_sc_hd__dlygate4sd3_1
*CAP
1 *4264:B 0.000255402
2 *4495:X 0.000255402
3 *4263:B1 *4264:B 0.000135531
4 *4267:B *4264:B 7.65329e-05
5 *4461:A *4264:B 8.57024e-05
6 *140:132 *4264:B 5.78276e-05
*RES
1 *4495:X *4264:B 11.355 
*END

*D_NET *412 0.000233472
*CONN
*I *4386:D I *D sky130_fd_sc_hd__dfxtp_1
*I *4496:X O *D sky130_fd_sc_hd__dlygate4sd3_1
*CAP
1 *4386:D 8.37642e-05
2 *4496:X 8.37642e-05
3 *140:108 *4386:D 0
4 *260:20 *4386:D 1.869e-05
5 *283:23 *4386:D 4.72538e-05
*RES
1 *4496:X *4386:D 8.80875 
*END

*D_NET *413 0.00221791
*CONN
*I *4125:C I *D sky130_fd_sc_hd__or4b_1
*I *4289:A I *D sky130_fd_sc_hd__and3_1
*I *4288:B1 I *D sky130_fd_sc_hd__a21o_1
*I *4497:X O *D sky130_fd_sc_hd__dlygate4sd3_1
*CAP
1 *4125:C 0.00032789
2 *4289:A 0.000108678
3 *4288:B1 0.000186109
4 *4497:X 0
5 *413:4 0.000622676
6 *4125:C *4125:A 1.9872e-05
7 *4132:A3 *4289:A 5.10957e-05
8 *4300:B *4289:A 5.66282e-05
9 *4499:A *4125:C 3.66286e-05
10 *4499:A *4288:B1 0.000279787
11 *100:135 *4125:C 0.000351732
12 *130:68 *4125:C 1.91597e-05
13 *130:68 *4288:B1 9.21168e-05
14 *130:68 *4289:A 6.55406e-05
*RES
1 *4497:X *413:4 1.6 
2 *413:4 *4288:B1 5.86 
3 *413:4 *4289:A 8 
4 *413:4 *4125:C 7.915 
*END

*D_NET *414 0.000164708
*CONN
*I *4290:C I *D sky130_fd_sc_hd__and3b_1
*I *4498:X O *D sky130_fd_sc_hd__dlygate4sd3_1
*CAP
1 *4290:C 8.03258e-05
2 *4498:X 8.03258e-05
3 *4290:B *4290:C 4.05674e-06
*RES
1 *4498:X *4290:C 4.34 
*END

*D_NET *415 0.000329324
*CONN
*I *4400:D I *D sky130_fd_sc_hd__dfxtp_1
*I *4499:X O *D sky130_fd_sc_hd__dlygate4sd3_1
*CAP
1 *4400:D 9.57338e-05
2 *4499:X 9.57338e-05
3 *4498:A *4400:D 0
4 *4499:A *4400:D 4.94404e-05
5 *309:6 *4400:D 8.84163e-05
*RES
1 *4499:X *4400:D 9.15375 
*END

*D_NET *416 0.00285292
*CONN
*I *4325:A I *D sky130_fd_sc_hd__and3_1
*I *4324:B1 I *D sky130_fd_sc_hd__a21o_1
*I *4129:A I *D sky130_fd_sc_hd__or4_1
*I *4500:X O *D sky130_fd_sc_hd__dlygate4sd3_1
*CAP
1 *4325:A 0.000169938
2 *4324:B1 0.00047918
3 *4129:A 0.000323235
4 *4500:X 0
5 *416:6 0.000802415
6 *416:4 0.000169938
7 *4129:A *4128:A 4.43871e-06
8 *4324:B1 *4413:D 0.000202681
9 *4325:A *4325:B 1.76069e-06
10 *4131:C *4129:A 0.000201503
11 *4324:A2 *4324:B1 1.16578e-05
12 *4325:C *4325:A 0.000111577
13 *4327:D *4129:A 0
14 *4327:D *4324:B1 0
15 *4334:A *4129:A 0
16 *4334:A *4324:B1 0
17 *4413:CLK *4324:B1 0.000237243
18 *247:12 *4129:A 2.75145e-05
19 *247:60 *4129:A 0
20 *326:8 *4324:B1 0.000109836
*RES
1 *4500:X *416:4 1.6 
2 *416:4 *416:6 2 
3 *416:6 *4129:A 9.03 
4 *416:6 *4324:B1 12.675 
5 *416:4 *4325:A 3.79 
*END

*D_NET *417 0.000761077
*CONN
*I *4348:D I *D sky130_fd_sc_hd__dfxtp_1
*I *4541:X O *D sky130_fd_sc_hd__dlygate4sd3_1
*CAP
1 *4348:D 0.000248682
2 *4541:X 0.000248682
3 *4348:D *4615:A 0
4 led[2] *4348:D 4.18603e-06
5 led[4] *4348:D 0
6 led[5] *4348:D 0
7 *4164:A1 *4348:D 7.06865e-05
8 *4164:B1 *4348:D 8.69282e-05
9 *4348:CLK *4348:D 9.03432e-05
10 *4541:A *4348:D 1.15688e-05
11 *4563:A *4348:D 0
12 *134:95 *4348:D 0
*RES
1 *4541:X *4348:D 11.9587 
*END

*D_NET *418 0.000660871
*CONN
*I *4413:D I *D sky130_fd_sc_hd__dfxtp_1
*I *4501:X O *D sky130_fd_sc_hd__dlygate4sd3_1
*CAP
1 *4413:D 0.000130223
2 *4501:X 0.000130223
3 *4413:D *458:14 9.37731e-05
4 *4413:D *458:20 8.53113e-06
5 *4324:B1 *4413:D 0.000202681
6 *4500:A *4413:D 9.54399e-05
*RES
1 *4501:X *4413:D 10.1888 
*END

*D_NET *419 0.00108474
*CONN
*I *4269:A1 I *D sky130_fd_sc_hd__o21ai_1
*I *4268:A I *D sky130_fd_sc_hd__and2_1
*I *4502:X O *D sky130_fd_sc_hd__dlygate4sd3_1
*CAP
1 *4269:A1 0.000214034
2 *4268:A 0
3 *4502:X 0.000181166
4 *419:12 0.0003952
5 *4120:D_N *419:12 0
6 *4268:B *4269:A1 0.000239813
7 *4269:B1 *4269:A1 2.05056e-05
8 *4503:A *419:12 5.83121e-06
9 *213:49 *419:12 0
10 *215:10 *419:12 0
11 *286:6 *4269:A1 2.81942e-05
*RES
1 *4502:X *419:12 7.775 
2 *419:12 *4268:A 1.6 
3 *419:12 *4269:A1 5.53 
*END

*D_NET *420 0.000666304
*CONN
*I *4270:B I *D sky130_fd_sc_hd__nor2_1
*I *4503:X O *D sky130_fd_sc_hd__dlygate4sd3_1
*CAP
1 *4270:B 0.000279295
2 *4503:X 0.000279295
3 *4503:A *4270:B 3.64998e-06
4 *4505:A *4270:B 0.000104065
5 *215:10 *4270:B 0
6 *262:16 *4270:B 0
*RES
1 *4503:X *4270:B 11.115 
*END

*D_NET *421 0.00054173
*CONN
*I *4388:D I *D sky130_fd_sc_hd__dfxtp_1
*I *4505:X O *D sky130_fd_sc_hd__dlygate4sd3_1
*CAP
1 *4388:D 0.000225696
2 *4505:X 0.000225696
3 *4388:CLK *4388:D 9.03376e-05
4 *4503:A *4388:D 0
5 *262:16 *4388:D 0
*RES
1 *4505:X *4388:D 10.7887 
*END

*D_NET *422 0.0044913
*CONN
*I *4294:A I *D sky130_fd_sc_hd__or2_1
*I *4295:A I *D sky130_fd_sc_hd__and3_1
*I *4125:A I *D sky130_fd_sc_hd__or4b_1
*I *4506:X O *D sky130_fd_sc_hd__dlygate4sd3_1
*CAP
1 *4294:A 0.000141397
2 *4295:A 0.000534614
3 *4125:A 0.000696071
4 *4506:X 0
5 *422:6 0.00124168
6 *422:4 0.000152395
7 *4295:A *4295:B 0
8 *527:DIODE *4125:A 4.75576e-05
9 *528:DIODE *4125:A 0.000260432
10 *574:DIODE *4125:A 0
11 *574:DIODE *4295:A 0.00015974
12 *4125:C *4125:A 1.9872e-05
13 *4137:B *4125:A 0.000201503
14 *4137:B *4294:A 0.000236977
15 *4137:B *422:6 3.74161e-05
16 *4294:B *4125:A 8.03844e-05
17 *4294:B *4294:A 0.000172805
18 *4294:B *422:6 1.34594e-05
19 *4296:C *4294:A 8.33824e-05
20 *4296:C *4295:A 0
21 *4297:B *4125:A 0
22 *4456:A *4125:A 0
23 *4513:A *4295:A 0
24 *4514:A *4295:A 0
25 *100:135 *4125:A 0.000411615
*RES
1 *4506:X *422:4 1.6 
2 *422:4 *422:6 0.45 
3 *422:6 *4125:A 16.685 
4 *422:6 *4295:A 14.6 
5 *422:4 *4294:A 6.34 
*END

*D_NET *423 0.000696824
*CONN
*I *4146:C I *D sky130_fd_sc_hd__nor3_1
*I *4126:C I *D sky130_fd_sc_hd__and3_1
*I *4507:X O *D sky130_fd_sc_hd__dlygate4sd3_1
*CAP
1 *4146:C 0.000117028
2 *4126:C 0
3 *4507:X 5.32374e-05
4 *423:10 0.000170265
5 *4146:C *4285:C1 9.52646e-05
6 *4132:A1 *4146:C 9.38662e-05
7 *4132:B1 *4146:C 0
8 *4285:A2 *423:10 5.20968e-05
9 *100:127 *423:10 3.39064e-05
10 *141:10 *4146:C 7.00889e-06
11 *362:70 *4146:C 6.97118e-05
12 *367:14 *423:10 4.43871e-06
*RES
1 *4507:X *423:10 6.725 
2 *423:10 *4126:C 1.6 
3 *423:10 *4146:C 4.915 
*END

*D_NET *424 0.000534151
*CONN
*I *4340:D I *D sky130_fd_sc_hd__dfxtp_2
*I *4508:X O *D sky130_fd_sc_hd__dlygate4sd3_1
*CAP
1 *4340:D 0.000135413
2 *4508:X 0.000135413
3 *4101:A *4340:D 4.51511e-05
4 *4285:D1 *4340:D 1.99679e-05
5 *259:42 *4340:D 0.000164388
6 *394:43 *4340:D 3.38178e-05
*RES
1 *4508:X *4340:D 10.3538 
*END

*D_NET *425 0.00124839
*CONN
*I *4260:A1 I *D sky130_fd_sc_hd__o21ai_1
*I *4259:A I *D sky130_fd_sc_hd__and2_1
*I *4509:X O *D sky130_fd_sc_hd__dlygate4sd3_1
*CAP
1 *4260:A1 3.95646e-05
2 *4259:A 0.00022644
3 *4509:X 0
4 *425:4 0.000266004
5 *4259:A *4261:B 2.75145e-05
6 *4259:B *4259:A 6.68538e-05
7 *4260:A2 *4259:A 9.66106e-05
8 *4260:A2 *4260:A1 3.00381e-05
9 *4263:A2 *4259:A 1.17409e-05
10 *4510:A *4259:A 5.90938e-05
11 *207:23 *4259:A 0.00042453
*RES
1 *4509:X *425:4 1.6 
2 *425:4 *4259:A 7.585 
3 *425:4 *4260:A1 2.41 
*END

*D_NET *426 0.000429865
*CONN
*I *4261:B I *D sky130_fd_sc_hd__nor2_1
*I *4510:X O *D sky130_fd_sc_hd__dlygate4sd3_1
*CAP
1 *4261:B 6.71417e-05
2 *4510:X 6.71417e-05
3 *4259:A *4261:B 2.75145e-05
4 *4259:B *4261:B 3.63717e-05
5 *4261:A *4261:B 6.85293e-05
6 *4263:A2 *4261:B 0.000112622
7 *4385:D *4261:B 5.05437e-05
*RES
1 *4510:X *4261:B 5.735 
*END

*D_NET *427 0.00342142
*CONN
*I *4300:A I *D sky130_fd_sc_hd__or3_1
*I *4299:B1 I *D sky130_fd_sc_hd__o31a_2
*I *4127:C I *D sky130_fd_sc_hd__or4b_1
*I *4511:X O *D sky130_fd_sc_hd__dlygate4sd3_1
*CAP
1 *4300:A 1.98072e-05
2 *4299:B1 1.83087e-05
3 *4127:C 0.00039257
4 *4511:X 0
5 *427:12 0.000721534
6 *427:4 0.000330462
7 *4127:D_N *4127:C 4.60584e-05
8 *4299:A2 *4127:C 7.00889e-06
9 *4299:A2 *4299:B1 5.84828e-05
10 *4299:A3 *4299:B1 8.26509e-05
11 *4299:A3 *427:12 0.000133631
12 *4301:A_N *4127:C 0.000160635
13 *4301:B *4127:C 1.16578e-05
14 *4305:A *4127:C 4.82919e-05
15 *4511:A *427:12 0.000239813
16 *144:24 *4127:C 1.61831e-05
17 *144:95 *4127:C 1.12578e-05
18 *226:21 *4300:A 6.90876e-05
19 *226:21 *427:12 0.000161204
20 *234:8 *4127:C 0.000280466
21 *234:10 *4127:C 2.92496e-05
22 *264:12 *4127:C 7.96171e-05
23 *264:14 *4127:C 6.86906e-05
24 *367:22 *4300:A 7.60965e-05
25 *367:22 *427:12 0.000358657
*RES
1 *4511:X *427:4 1.6 
2 *427:4 *427:12 8.595 
3 *427:12 *4127:C 14.48 
4 *427:12 *4299:B1 2.755 
5 *427:4 *4300:A 2.74 
*END

*D_NET *428 0.000889682
*CONN
*I *4162:A1 I *D sky130_fd_sc_hd__a21o_1
*I *4552:X O *D sky130_fd_sc_hd__dlygate4sd3_1
*CAP
1 *4162:A1 0.000204349
2 *4552:X 0.000204349
3 *4164:A1 *4162:A1 4.57347e-05
4 *4164:B1 *4162:A1 0.0001472
5 *4541:A *4162:A1 1.83847e-05
6 *134:97 *4162:A1 0.000269665
*RES
1 *4552:X *4162:A1 12.195 
*END

*D_NET *429 0.00160776
*CONN
*I *4285:C1 I *D sky130_fd_sc_hd__a2111o_1
*I *4512:X O *D sky130_fd_sc_hd__dlygate4sd3_1
*CAP
1 *4285:C1 0.000505721
2 *4512:X 0.000505721
3 *538:DIODE *4285:C1 1.49562e-05
4 *4126:B *4285:C1 4.05358e-05
5 *4146:C *4285:C1 9.52646e-05
6 *4147:B1 *4285:C1 2.68526e-05
7 *4286:B *4285:C1 3.69837e-05
8 *4342:D *4285:C1 0.000158536
9 *4458:A *4285:C1 9.10513e-05
10 *100:123 *4285:C1 7.23602e-05
11 *141:10 *4285:C1 1.76154e-05
12 *225:10 *4285:C1 4.21621e-05
*RES
1 *4512:X *4285:C1 15.885 
*END

*D_NET *430 0.000730502
*CONN
*I *4403:D I *D sky130_fd_sc_hd__dfxtp_1
*I *4513:X O *D sky130_fd_sc_hd__dlygate4sd3_1
*CAP
1 *4403:D 0.000365251
2 *4513:X 0.000365251
3 *4513:A *4403:D 0
4 *311:12 *4403:D 0
*RES
1 *4513:X *4403:D 12.5437 
*END

*D_NET *431 0.00134467
*CONN
*I *4295:B I *D sky130_fd_sc_hd__and3_1
*I *4291:A I *D sky130_fd_sc_hd__or2_1
*I *4292:A I *D sky130_fd_sc_hd__and2_1
*I *4514:X O *D sky130_fd_sc_hd__dlygate4sd3_1
*CAP
1 *4295:B 7.8952e-05
2 *4291:A 0.000122623
3 *4292:A 0
4 *4514:X 0.000143897
5 *431:8 0.000219678
6 *431:6 0.000319904
7 *4295:A *4295:B 0
8 *4295:C *4291:A 4.14502e-05
9 *4295:C *4295:B 4.19797e-05
10 *4295:C *431:8 4.66108e-05
11 *4514:A *4295:B 3.09164e-05
12 *228:14 *4291:A 8.77498e-05
13 *228:21 *4291:A 0.000123955
14 *230:14 *4291:A 8.69583e-05
*RES
1 *4514:X *431:6 3.775 
2 *431:6 *431:8 1.485 
3 *431:8 *4292:A 1.6 
4 *431:8 *4291:A 4.48 
5 *431:6 *4295:B 7.235 
*END

*D_NET *432 0.00229494
*CONN
*I *4242:B1 I *D sky130_fd_sc_hd__o31a_1
*I *4243:A I *D sky130_fd_sc_hd__or4_1
*I *4245:B1 I *D sky130_fd_sc_hd__o311a_2
*I *4516:X O *D sky130_fd_sc_hd__dlygate4sd3_1
*CAP
1 *4242:B1 2.18209e-05
2 *4243:A 0.000310169
3 *4245:B1 0.000235655
4 *4516:X 0
5 *432:21 0.000458281
6 *432:4 0.000361946
7 *4243:A *4242:A2 2.45351e-05
8 *4243:A *488:70 0.000307054
9 *4245:B1 *4245:A1 4.18603e-06
10 *4245:B1 *460:54 0.000312083
11 *432:21 *4242:A1 0.00012657
12 *432:21 *4242:A2 5.05437e-05
13 *432:21 *460:50 9.27255e-06
14 *4143:A3 *4243:A 1.94892e-05
15 *4246:A2 *4245:B1 0
16 *4593:A *4245:B1 0
17 *198:6 *4245:B1 2.54522e-05
18 *263:63 *4243:A 2.7881e-05
*RES
1 *4516:X *432:4 1.6 
2 *432:4 *4245:B1 10.07 
3 *432:4 *432:21 2.535 
4 *432:21 *4243:A 10.13 
5 *432:21 *4242:B1 1.96 
*END

*D_NET *433 0.000380255
*CONN
*I *4347:D I *D sky130_fd_sc_hd__dfxtp_1
*I *4563:X O *D sky130_fd_sc_hd__dlygate4sd3_1
*CAP
1 *4347:D 0.000133589
2 *4563:X 0.000133589
3 *4347:D *4616:A 1.43717e-05
4 *4347:D *495:12 4.4952e-05
5 led[5] *4347:D 4.82319e-06
6 *4578:A *4347:D 4.89295e-05
7 *267:59 *4347:D 0
8 *267:65 *4347:D 0
*RES
1 *4563:X *4347:D 9.42375 
*END

*D_NET *434 0.0136179
*CONN
*I *522:DIODE I *D sky130_fd_sc_hd__diode_2
*I *4283:B I *D sky130_fd_sc_hd__or2_1
*I *4608:X O *D sky130_fd_sc_hd__buf_1
*CAP
1 *522:DIODE 0
2 *4283:B 0.000110743
3 *4608:X 0.00189694
4 *434:20 0.00148387
5 *434:18 0.00452276
6 *434:14 0.00504657
7 *4258:B *434:20 4.85494e-05
8 *4383:D *434:20 5.28825e-05
9 *4466:A *434:20 0.00011964
10 *4467:A *434:18 0.00012657
11 *4467:A *434:20 0.000115146
12 *4470:A *434:20 3.03775e-05
13 *14:13 *434:14 2.87867e-05
14 *281:10 *434:20 3.50763e-05
*RES
1 *4608:X *434:14 26.7725 
2 *434:14 *434:18 44.1075 
3 *434:18 *434:20 15.975 
4 *434:20 *4283:B 3.265 
5 *434:20 *522:DIODE 1.6 
*END

*D_NET *435 0.00145626
*CONN
*I *4154:A1 I *D sky130_fd_sc_hd__o21ba_1
*I *4574:X O *D sky130_fd_sc_hd__dlygate4sd3_1
*CAP
1 *4154:A1 0.000550989
2 *4574:X 0.000550989
3 *4154:A1 *4345:D 0.000162325
4 *4154:A1 *4574:A 0
5 *4154:A1 *445:8 0
6 led[0] *4154:A1 0.000191954
7 led[4] *4154:A1 0
8 *4585:A *4154:A1 0
*RES
1 *4574:X *4154:A1 17.535 
*END

*D_NET *436 0.000247874
*CONN
*I *4343:D I *D sky130_fd_sc_hd__dfxtp_1
*I *4585:X O *D sky130_fd_sc_hd__dlygate4sd3_1
*CAP
1 *4343:D 8.44488e-05
2 *4585:X 8.44488e-05
3 *4566:A *4343:D 0
4 *4585:A *4343:D 7.89767e-05
*RES
1 *4585:X *4343:D 8.97375 
*END

*D_NET *437 0.000482907
*CONN
*I *4166:A1 I *D sky130_fd_sc_hd__a21o_1
*I *4596:X O *D sky130_fd_sc_hd__dlygate4sd3_1
*CAP
1 *4166:A1 0.000195326
2 *4596:X 0.000195326
3 *4166:A1 *511:10 0
4 *4166:A2 *4166:A1 2.75229e-05
5 *151:16 *4166:A1 6.47326e-05
*RES
1 *4596:X *4166:A1 9.9 
*END

*D_NET *438 0.000519575
*CONN
*I *4349:D I *D sky130_fd_sc_hd__dfxtp_1
*I *4438:X O *D sky130_fd_sc_hd__dlygate4sd3_1
*CAP
1 *4349:D 0.000259788
2 *4438:X 0.000259788
3 *4349:D *511:10 0
4 *4438:A *4349:D 0
*RES
1 *4438:X *4349:D 10.8787 
*END

*D_NET *439 0.00218641
*CONN
*I *4210:A I *D sky130_fd_sc_hd__or2_1
*I *4193:A1 I *D sky130_fd_sc_hd__o211a_1
*I *4449:X O *D sky130_fd_sc_hd__dlygate4sd3_1
*CAP
1 *4210:A 0.000586906
2 *4193:A1 0.000231729
3 *4449:X 0
4 *439:6 0.000818635
5 *4193:A1 *4197:A1 0.000356395
6 *4210:A *490:10 0
7 *4210:B *4210:A 0.000124895
8 *4366:D *4210:A 1.43717e-05
9 *4449:A *4210:A 0
10 *4460:A *4193:A1 5.34747e-05
11 *4460:A *4210:A 0
*RES
1 *4449:X *439:6 3.6 
2 *439:6 *4193:A1 8.955 
3 *439:6 *4210:A 10.98 
*END

*D_NET *440 0.000537811
*CONN
*I *4358:D I *D sky130_fd_sc_hd__dfxtp_1
*I *4460:X O *D sky130_fd_sc_hd__dlygate4sd3_1
*CAP
1 *4358:D 0.000165443
2 *4460:X 0.000165443
3 *4358:D *4195:A1 0.000206926
4 *4460:A *4358:D 0
*RES
1 *4460:X *4358:D 10.1888 
*END

*D_NET *441 0.00269134
*CONN
*I *4226:A1 I *D sky130_fd_sc_hd__o211a_1
*I *4240:A I *D sky130_fd_sc_hd__or2_1
*I *4471:X O *D sky130_fd_sc_hd__dlygate4sd3_1
*CAP
1 *4226:A1 2.08101e-05
2 *4240:A 0.000685327
3 *4471:X 6.0541e-05
4 *441:6 0.000766678
5 *4240:A *4133:A_N 8.66113e-05
6 *4240:A *4241:A1 0.000205363
7 *4240:A *4241:A2 8.49205e-05
8 *4226:A2 *441:6 0.00019637
9 *4226:C1 *441:6 8.8266e-05
10 *4241:B1 *4240:A 2.8185e-05
11 *4471:A *4240:A 0.000157968
12 *4471:A *441:6 7.73773e-05
13 *122:8 *4240:A 2.97473e-05
14 *131:12 *4240:A 0.000203178
*RES
1 *4471:X *441:6 3.775 
2 *441:6 *4240:A 12.19 
3 *441:6 *4226:A1 1.96 
*END

*D_NET *442 0.000960031
*CONN
*I *4373:D I *D sky130_fd_sc_hd__dfxtp_1
*I *4482:X O *D sky130_fd_sc_hd__dlygate4sd3_1
*CAP
1 *4373:D 0.000226267
2 *4482:X 0.000226267
3 *4373:D *4207:A1 0.000141606
4 *97:45 *4373:D 0.000198945
5 *298:10 *4373:D 0
6 *373:216 *4373:D 0.000166946
*RES
1 *4482:X *4373:D 12.4237 
*END

*D_NET *443 0.000472194
*CONN
*I *4168:A1 I *D sky130_fd_sc_hd__a21o_1
*I *4493:X O *D sky130_fd_sc_hd__dlygate4sd3_1
*CAP
1 *4168:A1 0.000215829
2 *4493:X 0.000215829
3 *4493:A *4168:A1 4.05358e-05
*RES
1 *4493:X *4168:A1 9.9 
*END

*D_NET *444 0.000317558
*CONN
*I *4350:D I *D sky130_fd_sc_hd__dfxtp_1
*I *4504:X O *D sky130_fd_sc_hd__dlygate4sd3_1
*CAP
1 *4350:D 0.000158779
2 *4504:X 0.000158779
3 *4350:CLK *4350:D 0
4 *4504:A *4350:D 0
*RES
1 *4504:X *4350:D 9.49875 
*END

*D_NET *445 0.000433436
*CONN
*I *4574:A I *D sky130_fd_sc_hd__dlygate4sd3_1
*I *4611:A I *D sky130_fd_sc_hd__buf_2
*I *4343:Q O *D sky130_fd_sc_hd__dfxtp_1
*CAP
1 *4574:A 0.000111965
2 *4611:A 0
3 *4343:Q 8.44851e-05
4 *445:8 0.00019645
5 led[0] *445:8 4.05358e-05
6 *4154:A1 *4574:A 0
7 *4154:A1 *445:8 0
*RES
1 *4343:Q *445:8 5.235 
2 *445:8 *4611:A 3.6 
3 *445:8 *4574:A 5.49 
*END

*D_NET *446 0.00437464
*CONN
*I *4302:A1 I *D sky130_fd_sc_hd__o21ai_1
*I *4305:B I *D sky130_fd_sc_hd__and2_1
*I *4127:B I *D sky130_fd_sc_hd__or4b_1
*I *4303:A1 I *D sky130_fd_sc_hd__a21oi_1
*I *4304:A1 I *D sky130_fd_sc_hd__a21o_1
*I *4515:X O *D sky130_fd_sc_hd__dlygate4sd3_1
*CAP
1 *4302:A1 0.000104792
2 *4305:B 0.000116311
3 *4127:B 0
4 *4303:A1 0.000398565
5 *4304:A1 8.73512e-05
6 *4515:X 0
7 *446:36 0.000161403
8 *446:10 0.000676751
9 *446:8 0.000623089
10 *446:4 0.000491954
11 *4131:A *4305:B 0
12 *4303:B1 *4302:A1 0.000136877
13 *4304:A2 *4304:A1 4.99619e-05
14 *4305:A *4305:B 0.000157602
15 *4309:C1 *4304:A1 4.11281e-05
16 *4309:C1 *446:10 3.56097e-05
17 *4406:CLK *4303:A1 0.000176571
18 *4406:CLK *446:10 0
19 *4406:D *4303:A1 1.43717e-05
20 *4472:A *446:10 0.000164287
21 *4473:A *4304:A1 0.000134148
22 *4473:A *446:10 0.000119285
23 *4474:A *4303:A1 0.000158965
24 *4517:A *4303:A1 5.062e-06
25 *144:24 *4305:B 4.28396e-05
26 *144:24 *446:10 2.75538e-05
27 *144:24 *446:36 2.46007e-05
28 *234:26 *446:8 0.00038879
29 *234:64 *4302:A1 3.67779e-05
30 *264:14 *4305:B 0
31 *264:14 *446:10 0
32 *264:14 *446:36 0
*RES
1 *4515:X *446:4 1.6 
2 *446:4 *446:8 6.935 
3 *446:8 *446:10 5.205 
4 *446:10 *4304:A1 5.775 
5 *446:10 *4303:A1 9.69 
6 *446:8 *446:36 0.87 
7 *446:36 *4127:B 3.6 
8 *446:36 *4305:B 6.255 
9 *446:4 *4302:A1 7.685 
*END

*D_NET *447 0.000349706
*CONN
*I *4405:D I *D sky130_fd_sc_hd__dfxtp_1
*I *4517:X O *D sky130_fd_sc_hd__dlygate4sd3_1
*CAP
1 *4405:D 0.000136443
2 *4517:X 0.000136443
3 *4517:A *4405:D 0
4 *234:26 *4405:D 2.47313e-05
5 *264:14 *4405:D 5.2089e-05
*RES
1 *4517:X *4405:D 9.25875 
*END

*D_NET *448 0.0023972
*CONN
*I *4284:A1 I *D sky130_fd_sc_hd__a31o_1
*I *4206:A I *D sky130_fd_sc_hd__or2_1
*I *4518:X O *D sky130_fd_sc_hd__dlygate4sd3_1
*CAP
1 *4284:A1 0.000147611
2 *4206:A 0.000608493
3 *4518:X 0
4 *448:4 0.000756105
5 *4206:A *4206:B 8.8266e-05
6 *4100:A *4206:A 1.19928e-05
7 *4207:C1 *4206:A 7.67415e-06
8 *100:66 *4206:A 2.75229e-05
9 *100:79 *4206:A 0.000610197
10 *100:79 *4284:A1 7.35729e-05
11 *373:64 *4284:A1 4.82919e-05
12 *373:145 *4284:A1 1.74678e-05
*RES
1 *4518:X *448:4 1.6 
2 *448:4 *4206:A 12.745 
3 *448:4 *4284:A1 4.135 
*END

*D_NET *449 0.000416222
*CONN
*I *4399:D I *D sky130_fd_sc_hd__dfxtp_1
*I *4520:X O *D sky130_fd_sc_hd__dlygate4sd3_1
*CAP
1 *4399:D 0.000155957
2 *4520:X 0.000155957
3 *4333:A *4399:D 0
4 *4399:CLK *4399:D 1.43717e-05
5 *4415:CLK *4399:D 5.30673e-05
6 *4543:A *4399:D 3.68682e-05
*RES
1 *4520:X *4399:D 9.76875 
*END

*D_NET *450 0.0028026
*CONN
*I *4133:A_N I *D sky130_fd_sc_hd__and2b_1
*I *4241:A1 I *D sky130_fd_sc_hd__o211a_1
*I *4124:A1 I *D sky130_fd_sc_hd__a221o_1
*I *4521:X O *D sky130_fd_sc_hd__dlygate4sd3_1
*CAP
1 *4133:A_N 5.1065e-05
2 *4241:A1 8.44515e-05
3 *4124:A1 0.000133864
4 *4521:X 0.000197625
5 *450:21 0.000309388
6 *450:8 0.00050536
7 *450:21 *4378:D 0
8 *4240:A *4133:A_N 8.66113e-05
9 *4240:A *4241:A1 0.000205363
10 *4394:CLK *450:8 0
11 *4536:A *4124:A1 0.00022027
12 *4554:A *4133:A_N 3.57349e-05
13 *4554:A *4241:A1 0.000239807
14 *100:338 *4124:A1 1.17309e-05
15 *122:8 *4241:A1 2.49909e-05
16 *122:12 *450:21 0
17 *122:32 *450:21 0
18 *151:16 *450:8 0.000331333
19 *151:16 *450:21 0.000335865
20 *287:14 *4124:A1 2.91399e-05
21 *287:14 *450:8 0
*RES
1 *4521:X *450:8 7.53 
2 *450:8 *4124:A1 6.12 
3 *450:8 *450:21 5.93 
4 *450:21 *4241:A1 4.81 
5 *450:21 *4133:A_N 2.74 
*END

*D_NET *451 0.000419414
*CONN
*I *4394:D I *D sky130_fd_sc_hd__dfxtp_1
*I *4522:X O *D sky130_fd_sc_hd__dlygate4sd3_1
*CAP
1 *4394:D 0.000146959
2 *4522:X 0.000146959
3 *4394:CLK *4394:D 6.09704e-05
4 *100:328 *4394:D 0
5 *133:10 *4394:D 0
6 *151:16 *4394:D 6.4526e-05
*RES
1 *4522:X *4394:D 10.0387 
*END

*D_NET *452 0.00175104
*CONN
*I *4129:C I *D sky130_fd_sc_hd__or4_1
*I *4320:A1 I *D sky130_fd_sc_hd__o21ai_1
*I *4319:A I *D sky130_fd_sc_hd__and4_1
*I *4523:X O *D sky130_fd_sc_hd__dlygate4sd3_1
*CAP
1 *4129:C 0.000107621
2 *4320:A1 0.000135657
3 *4319:A 0
4 *4523:X 3.61979e-05
5 *452:15 0.000279105
6 *452:6 7.20246e-05
7 *4129:C *4129:D 9.03988e-05
8 *4320:A1 *4129:D 1.1561e-05
9 *4320:A1 *4315:B 0.000164874
10 *4320:A1 *516:34 6.82445e-05
11 *4320:A1 *516:45 4.03082e-05
12 *4317:A2 *4320:A1 0.000182389
13 *4320:A2 *4320:A1 0.000158681
14 *4524:A *4129:C 0.000130714
15 *4524:A *4320:A1 0.000163012
16 *4588:A *4320:A1 8.53113e-06
17 *144:148 *4129:C 0
18 *144:148 *4320:A1 8.8266e-05
19 *247:12 *4129:C 1.34594e-05
20 *247:60 *4129:C 0
*RES
1 *4523:X *452:6 2.05 
2 *452:6 *4319:A 1.6 
3 *452:6 *452:15 2.45 
4 *452:15 *4320:A1 9.465 
5 *452:15 *4129:C 6.285 
*END

*D_NET *453 0.00018236
*CONN
*I *4321:B I *D sky130_fd_sc_hd__nor2_1
*I *4524:X O *D sky130_fd_sc_hd__dlygate4sd3_1
*CAP
1 *4321:B 2.90228e-05
2 *4524:X 2.90228e-05
3 *4322:B1 *4321:B 5.07419e-05
4 *247:12 *4321:B 7.35729e-05
*RES
1 *4524:X *4321:B 4.34 
*END

*D_NET *454 0.000564314
*CONN
*I *4411:D I *D sky130_fd_sc_hd__dfxtp_1
*I *4525:X O *D sky130_fd_sc_hd__dlygate4sd3_1
*CAP
1 *4411:D 0.000160377
2 *4525:X 0.000160377
3 *4523:A *4411:D 0.00024356
4 *261:40 *4411:D 0
*RES
1 *4525:X *4411:D 10.5337 
*END

*D_NET *455 0.0018551
*CONN
*I *4224:A1 I *D sky130_fd_sc_hd__o211a_1
*I *4207:A1 I *D sky130_fd_sc_hd__o211a_1
*I *4526:X O *D sky130_fd_sc_hd__dlygate4sd3_1
*CAP
1 *4224:A1 0
2 *4207:A1 0.000476576
3 *4526:X 7.60011e-05
4 *455:6 0.000552577
5 *4207:A1 *460:109 0
6 *4207:A1 *460:126 0.00012657
7 *555:DIODE *4207:A1 7.35729e-05
8 *4223:B *4207:A1 0
9 *4224:A2 *455:6 4.66108e-05
10 *4224:C1 *4207:A1 0
11 *4226:A2 *4207:A1 9.30787e-05
12 *4373:D *4207:A1 0.000141606
13 *97:45 *4207:A1 0
14 *134:83 *455:6 4.7101e-05
15 *177:10 *4207:A1 0
16 *178:12 *4207:A1 2.07184e-05
17 *178:14 *4207:A1 0.000195151
18 *180:46 *4207:A1 5.53249e-06
19 *373:192 *4207:A1 0
*RES
1 *4526:X *455:6 3.085 
2 *455:6 *4207:A1 15.005 
3 *455:6 *4224:A1 1.6 
*END

*D_NET *456 0.00646655
*CONN
*I *4612:A I *D sky130_fd_sc_hd__buf_2
*I *4583:A I *D sky130_fd_sc_hd__dlygate4sd3_1
*I *4344:Q O *D sky130_fd_sc_hd__dfxtp_1
*CAP
1 *4612:A 0.000164871
2 *4583:A 0.00175025
3 *4344:Q 0.00011061
4 *456:6 0.00202573
5 *4583:A *4175:A1 5.11921e-05
6 *4583:A *4344:D 7.36892e-05
7 *4612:A *4159:A 7.23533e-05
8 led[1] *4612:A 0.000187251
9 *4148:B *4583:A 0
10 *4155:B *4612:A 0.000334389
11 *4175:A2 *4583:A 0.000910501
12 *4175:B1 *4583:A 9.97536e-06
13 *4188:B1 *4583:A 0.000229661
14 *4188:B2 *4583:A 0.000183043
15 *4339:D *4612:A 4.41538e-05
16 *4344:CLK *4583:A 4.41506e-05
17 *4351:CLK *4583:A 8.34793e-05
18 *4351:D *4583:A 1.54049e-05
19 *4602:A *4583:A 3.31103e-05
20 *153:21 *4583:A 2.23922e-05
21 *265:130 *4612:A 2.03321e-05
22 *362:35 *4583:A 0.000100002
*RES
1 *4344:Q *456:6 2.74 
2 *456:6 *4583:A 29.06 
3 *456:6 *4612:A 11.06 
*END

*D_NET *457 0.000908133
*CONN
*I *4372:D I *D sky130_fd_sc_hd__dfxtp_1
*I *4527:X O *D sky130_fd_sc_hd__dlygate4sd3_1
*CAP
1 *4372:D 0.000135363
2 *4527:X 0.000135363
3 *4220:A2 *4372:D 1.54049e-05
4 *4371:D *4372:D 9.5433e-05
5 *4526:A *4372:D 0.000181582
6 *177:27 *4372:D 0.000282231
7 *178:14 *4372:D 0
8 *178:61 *4372:D 4.66108e-05
9 *266:66 *4372:D 1.01661e-05
10 *266:79 *4372:D 5.98004e-06
*RES
1 *4527:X *4372:D 11.4637 
*END

*D_NET *458 0.005029
*CONN
*I *4327:C I *D sky130_fd_sc_hd__and4_2
*I *4323:A1 I *D sky130_fd_sc_hd__a21oi_1
*I *4322:A1 I *D sky130_fd_sc_hd__o21ai_1
*I *4324:A1 I *D sky130_fd_sc_hd__a21o_1
*I *4325:B I *D sky130_fd_sc_hd__and3_1
*I *4129:B I *D sky130_fd_sc_hd__or4_1
*I *4528:X O *D sky130_fd_sc_hd__dlygate4sd3_1
*CAP
1 *4327:C 2.66541e-05
2 *4323:A1 0
3 *4322:A1 0.000148812
4 *4324:A1 5.5043e-05
5 *4325:B 0.000272074
6 *4129:B 4.19546e-05
7 *4528:X 0.000238624
8 *458:46 0.000587448
9 *458:20 0.000435153
10 *458:14 0.000644034
11 *458:12 0.000404595
12 *4324:A1 *4412:D 0
13 *4168:B1 *458:12 0.000312964
14 *4322:A2 *4322:A1 8.40763e-05
15 *4322:A2 *458:46 7.67415e-06
16 *4322:B1 *4322:A1 0.000278111
17 *4323:B1 *4322:A1 0.000356395
18 *4325:A *4325:B 1.76069e-06
19 *4325:C *4325:B 2.20223e-05
20 *4327:B *4327:C 4.17687e-05
21 *4327:B *458:14 9.8657e-05
22 *4328:A2 *458:12 0
23 *4328:A2 *458:14 0
24 *4328:A2 *458:20 0
25 *4413:D *458:14 9.37731e-05
26 *4413:D *458:20 8.53113e-06
27 *4500:A *458:14 6.87509e-05
28 *4500:A *458:20 2.60908e-05
29 *4501:A *458:46 0.000114248
30 *4529:A *4322:A1 3.00381e-05
31 *144:140 *458:20 0
32 *247:29 *458:46 4.66108e-05
33 *247:60 *4129:B 7.23533e-05
34 *247:60 *458:20 5.07037e-05
35 *251:12 *4325:B 0.000180997
36 *251:12 *458:46 0.000156119
37 *252:6 *458:12 2.75145e-05
38 *261:40 *4324:A1 9.54469e-05
*RES
1 *4528:X *458:12 8.1825 
2 *458:12 *458:14 3.2925 
3 *458:14 *458:20 2.28 
4 *458:20 *4129:B 4.47 
5 *458:20 *4325:B 7.155 
6 *458:14 *458:46 7.745 
7 *458:46 *4324:A1 6.725 
8 *458:46 *4322:A1 6.895 
9 *458:46 *4323:A1 1.6 
10 *458:12 *4327:C 4.0875 
*END

*D_NET *459 0.000424689
*CONN
*I *4412:D I *D sky130_fd_sc_hd__dfxtp_1
*I *4529:X O *D sky130_fd_sc_hd__dlygate4sd3_1
*CAP
1 *4412:D 0.000212345
2 *4529:X 0.000212345
3 *4324:A1 *4412:D 0
*RES
1 *4529:X *4412:D 10.1888 
*END

*D_NET *460 0.0198515
*CONN
*I *4194:A I *D sky130_fd_sc_hd__or2_1
*I *4196:A I *D sky130_fd_sc_hd__or2_1
*I *4198:A I *D sky130_fd_sc_hd__or2_1
*I *4200:A I *D sky130_fd_sc_hd__or2_1
*I *4202:A I *D sky130_fd_sc_hd__or2_1
*I *4204:A I *D sky130_fd_sc_hd__or2_1
*I *4206:B I *D sky130_fd_sc_hd__or2_1
*I *4243:B I *D sky130_fd_sc_hd__or4_1
*I *4152:B2 I *D sky130_fd_sc_hd__a32o_1
*I *4242:A1 I *D sky130_fd_sc_hd__o31a_1
*I *4122:A1 I *D sky130_fd_sc_hd__a21bo_2
*I *4245:A1 I *D sky130_fd_sc_hd__o311a_2
*I *4123:A I *D sky130_fd_sc_hd__nand2_1
*I *4097:A I *D sky130_fd_sc_hd__inv_2
*I *4531:X O *D sky130_fd_sc_hd__dlygate4sd3_1
*CAP
1 *4194:A 0.000138957
2 *4196:A 0
3 *4198:A 0
4 *4200:A 9.71536e-06
5 *4202:A 0.000148343
6 *4204:A 0
7 *4206:B 0.000283945
8 *4243:B 0
9 *4152:B2 3.48335e-05
10 *4242:A1 1.91745e-05
11 *4122:A1 0.000381261
12 *4245:A1 0.00015507
13 *4123:A 1.65033e-05
14 *4097:A 2.42333e-05
15 *4531:X 0.000215217
16 *460:192 0.000283771
17 *460:179 0.00111589
18 *460:156 0.00194426
19 *460:133 0.00124104
20 *460:126 0.000263474
21 *460:109 0.000993031
22 *460:54 0.000729301
23 *460:50 0.000551529
24 *460:44 0.000588805
25 *460:42 0.000541762
26 *460:25 0.000430223
27 *460:12 0.000244454
28 *460:6 0.000923736
29 *4097:A *488:20 4.66108e-05
30 *4194:A *4196:B 8.49205e-05
31 *460:12 *488:20 0.000163985
32 *460:25 *488:20 1.1561e-05
33 *460:42 *488:47 0
34 *460:44 *488:70 7.68414e-06
35 *460:50 *4242:A2 2.30292e-05
36 *460:156 *4184:A1 8.8266e-05
37 *460:156 *4187:A1 3.1562e-06
38 *460:156 *4363:D 0.000203329
39 *460:179 *4199:A1 0.000239813
40 *460:179 *4201:A1 0
41 *460:179 *4218:A1 0
42 *460:179 *4219:A 4.9968e-05
43 *460:179 *4369:D 0.000168478
44 *460:179 *4370:D 0
45 *460:179 *468:8 4.82919e-05
46 *460:179 *491:12 0.000160635
47 *460:192 *491:12 3.83041e-05
48 *555:DIODE *4206:B 1.71207e-05
49 *555:DIODE *460:109 7.47284e-05
50 *555:DIODE *460:126 2.10673e-05
51 *4100:A *4206:B 5.4003e-05
52 *4122:B1_N *4122:A1 7.58604e-05
53 *4135:A1 *460:6 5.78094e-05
54 *4135:A2 *460:6 4.99619e-05
55 *4135:B1 *460:12 7.4027e-05
56 *4152:B1 *4152:B2 0.000116158
57 *4167:A2 *4206:B 8.26696e-05
58 *4192:A *4123:A 2.49909e-05
59 *4192:B *4194:A 2.75229e-05
60 *4199:B1 *460:179 4.99619e-05
61 *4199:C1 *460:179 4.82919e-05
62 *4200:B *460:156 8.53113e-06
63 *4200:B *460:179 0.000183043
64 *4201:C1 *4200:A 4.85845e-05
65 *4204:B *4202:A 0.000181376
66 *4204:B *460:126 4.60584e-05
67 *4204:B *460:133 0.000538549
68 *4206:A *4206:B 8.8266e-05
69 *4207:A1 *460:109 0
70 *4207:A1 *460:126 0.00012657
71 *4207:C1 *4206:B 3.64998e-06
72 *4219:B *460:179 0
73 *4223:B *460:109 1.88271e-05
74 *4227:A *460:12 2.05583e-05
75 *4227:A *460:25 0.000204463
76 *4227:A *460:42 0.000139245
77 *4227:B *460:42 4.82863e-05
78 *4240:B *4122:A1 2.16833e-05
79 *4242:A3 *460:54 0
80 *4244:B *4242:A1 2.30292e-05
81 *4244:B *460:44 0.000110673
82 *4244:B *460:50 0.000322951
83 *4245:B1 *4245:A1 4.18603e-06
84 *4245:B1 *460:54 0.000312083
85 *4245:C1 *460:54 0.000206123
86 *4363:CLK *460:156 1.83756e-05
87 *4375:CLK *460:42 0.000457702
88 *4375:CLK *460:44 9.07709e-05
89 *4379:D *460:50 0
90 *4380:D *4122:A1 0.000117832
91 *4380:D *460:54 9.50342e-06
92 *4440:A *460:25 0.000116165
93 *4534:A *460:179 0.000115464
94 *4558:A *4202:A 4.66108e-05
95 *4593:A *4245:A1 0
96 *97:12 *460:12 9.68787e-05
97 *97:12 *460:109 4.80285e-05
98 *97:22 *460:126 0.000147705
99 *97:77 *460:179 0
100 *100:291 *4206:B 4.5783e-05
101 *100:313 *4206:B 0.000194523
102 *122:45 *4123:A 4.66108e-05
103 *131:12 *460:12 4.53623e-05
104 *133:10 *4206:B 0.000133956
105 *133:10 *460:109 8.73389e-06
106 *140:51 *4122:A1 0
107 *177:10 *460:109 3.60648e-06
108 *180:10 *460:109 0.00020613
109 *180:19 *460:109 0.000206116
110 *198:6 *4242:A1 4.82919e-05
111 *259:154 *460:133 0.000157968
112 *259:160 *460:126 0.000535986
113 *259:160 *460:133 0.000134314
114 *259:213 *4202:A 0
115 *259:213 *460:133 2.39856e-05
116 *259:213 *460:156 1.29866e-05
117 *267:14 *460:179 0
118 *267:38 *460:179 0
119 *290:8 *4152:B2 0.000116158
120 *301:8 *460:192 1.26626e-05
121 *301:27 *460:192 0.00011741
122 *305:12 *460:179 0.000164874
123 *306:24 *4202:A 3.54181e-05
124 *356:18 *4122:A1 0
125 *356:27 *460:54 0
126 *362:185 *460:192 0
127 *373:216 *460:109 0
128 *373:257 *460:25 2.63122e-05
129 *373:257 *460:42 3.98952e-05
130 *373:270 *460:42 3.77368e-05
131 *373:359 *4200:A 4.82863e-05
132 *432:21 *4242:A1 0.00012657
133 *432:21 *460:50 9.27255e-06
*RES
1 *4531:X *460:6 4.81 
2 *460:6 *460:12 5.78 
3 *460:12 *4097:A 4.05 
4 *460:12 *460:25 2.85 
5 *460:25 *4123:A 4.05 
6 *460:25 *460:42 9.005 
7 *460:42 *460:44 2.865 
8 *460:44 *460:50 6.77 
9 *460:50 *460:54 5.145 
10 *460:54 *4245:A1 5.7 
11 *460:54 *4122:A1 10.11 
12 *460:50 *4242:A1 4.74 
13 *460:44 *4152:B2 6.98 
14 *460:42 *4243:B 1.6 
15 *460:6 *460:109 12.395 
16 *460:109 *4206:B 11.31 
17 *460:109 *460:126 7.295 
18 *460:126 *4204:A 1.6 
19 *460:126 *460:133 5.28 
20 *460:133 *4202:A 8.81 
21 *460:133 *460:156 13.505 
22 *460:156 *4200:A 4.05 
23 *460:156 *460:179 23.895 
24 *460:179 *4198:A 1.6 
25 *460:179 *460:192 7.105 
26 *460:192 *4196:A 1.6 
27 *460:192 *4194:A 3.79 
*END

*D_NET *461 0.00168349
*CONN
*I *4220:A1 I *D sky130_fd_sc_hd__o211a_1
*I *4221:A I *D sky130_fd_sc_hd__or2_1
*I *4203:A1 I *D sky130_fd_sc_hd__o211a_1
*I *4532:X O *D sky130_fd_sc_hd__dlygate4sd3_1
*CAP
1 *4220:A1 1.85694e-05
2 *4221:A 0.000220568
3 *4203:A1 0.000148207
4 *4532:X 0
5 *461:25 0.000469692
6 *461:6 0.000378761
7 *461:25 *4216:A1 0
8 *4219:B *4203:A1 0
9 *4219:B *461:25 0
10 *4220:A2 *4220:A1 9.53428e-06
11 *4220:A2 *4221:A 0.000199532
12 *4220:B1 *4221:A 4.82863e-05
13 *4370:CLK *461:25 3.0381e-05
14 *4532:A *461:25 0
15 *4537:A *461:25 6.02202e-05
16 *97:45 *4203:A1 2.57174e-05
17 *97:62 *4203:A1 3.15611e-05
18 *259:213 *4203:A1 0
19 *259:213 *461:25 0
20 *266:16 *4221:A 1.17409e-05
21 *266:16 *461:25 3.07153e-05
*RES
1 *4532:X *461:6 3.6 
2 *461:6 *4203:A1 6.045 
3 *461:6 *461:25 5.975 
4 *461:25 *4221:A 5.5 
5 *461:25 *4220:A1 1.96 
*END

*D_NET *462 0.000514811
*CONN
*I *4363:D I *D sky130_fd_sc_hd__dfxtp_1
*I *4533:X O *D sky130_fd_sc_hd__dlygate4sd3_1
*CAP
1 *4363:D 0.000121888
2 *4533:X 0.000121888
3 *259:213 *4363:D 6.77062e-05
4 *266:22 *4363:D 0
5 *460:156 *4363:D 0.000203329
*RES
1 *4533:X *4363:D 10.1888 
*END

*D_NET *463 0.00236816
*CONN
*I *4201:A1 I *D sky130_fd_sc_hd__o211a_1
*I *4218:A1 I *D sky130_fd_sc_hd__o211a_1
*I *4219:A I *D sky130_fd_sc_hd__or2_1
*I *4534:X O *D sky130_fd_sc_hd__dlygate4sd3_1
*CAP
1 *4201:A1 0.000206215
2 *4218:A1 0.000241982
3 *4219:A 0.000203989
4 *4534:X 0.000175916
5 *463:23 0.000448197
6 *463:6 0.000379905
7 *4201:A1 *4184:A1 0
8 *4201:A1 *468:14 4.20983e-05
9 *4218:A1 *4199:A1 0.000155139
10 *4218:A1 *468:14 2.37321e-05
11 *4219:A *4216:A1 0
12 *4219:A *4370:D 0
13 *4219:A *468:14 7.59545e-05
14 *463:6 *468:14 4.16353e-05
15 *4200:B *4201:A1 0
16 *4200:B *463:6 7.67415e-06
17 *4219:B *4219:A 4.18603e-06
18 *4220:C1 *4219:A 9.48971e-05
19 *4534:A *4201:A1 0
20 *4534:A *4218:A1 0
21 *4534:A *4219:A 7.35813e-05
22 *4535:A *4201:A1 4.11112e-05
23 *4535:A *463:6 3.45679e-05
24 *4538:A *4218:A1 6.74079e-05
25 *4556:A *4201:A1 0
26 *266:151 *4218:A1 0
27 *460:179 *4201:A1 0
28 *460:179 *4218:A1 0
29 *460:179 *4219:A 4.9968e-05
*RES
1 *4534:X *463:6 3.775 
2 *463:6 *4219:A 8.84 
3 *463:6 *463:23 2 
4 *463:23 *4218:A1 9.06 
5 *463:23 *4201:A1 6.96 
*END

*D_NET *464 0.000517302
*CONN
*I *4362:D I *D sky130_fd_sc_hd__dfxtp_1
*I *4535:X O *D sky130_fd_sc_hd__dlygate4sd3_1
*CAP
1 *4362:D 6.04782e-05
2 *4535:X 6.04782e-05
3 *97:77 *4362:D 4.94326e-05
4 *267:12 *4362:D 0.000126084
5 *267:14 *4362:D 9.47454e-05
6 *305:12 *4362:D 0.000126084
*RES
1 *4535:X *4362:D 9.49875 
*END

*D_NET *465 0.000471405
*CONN
*I *4133:B I *D sky130_fd_sc_hd__and2b_1
*I *4211:A I *D sky130_fd_sc_hd__nor2_2
*I *4536:X O *D sky130_fd_sc_hd__dlygate4sd3_1
*CAP
1 *4133:B 6.66562e-05
2 *4211:A 0
3 *4536:X 7.57542e-05
4 *465:8 0.00014241
5 *4211:B *4133:B 5.53249e-06
6 *4211:B *465:8 6.47594e-05
7 *4471:A *4133:B 5.39718e-05
8 *97:22 *4133:B 6.23206e-05
9 *259:160 *4133:B 0
10 *259:160 *465:8 0
*RES
1 *4536:X *465:8 4.98 
2 *465:8 *4211:A 3.6 
3 *465:8 *4133:B 5.49 
*END

*D_NET *466 0.000514231
*CONN
*I *4370:D I *D sky130_fd_sc_hd__dfxtp_1
*I *4537:X O *D sky130_fd_sc_hd__dlygate4sd3_1
*CAP
1 *4370:D 0.000232005
2 *4537:X 0.000232005
3 *4219:A *4370:D 0
4 *4539:A *4370:D 5.02217e-05
5 *460:179 *4370:D 0
*RES
1 *4537:X *4370:D 10.5337 
*END

*D_NET *467 0.00228107
*CONN
*I *4562:A I *D sky130_fd_sc_hd__dlygate4sd3_1
*I *4613:A I *D sky130_fd_sc_hd__buf_2
*I *4345:Q O *D sky130_fd_sc_hd__dfxtp_1
*CAP
1 *4562:A 0.000109923
2 *4613:A 0.000252109
3 *4345:Q 8.50276e-05
4 *467:8 0.00044706
5 *4562:A *4157:A 0.000232111
6 *4613:A *4615:A 0
7 *467:8 *4615:A 0
8 *4153:A2 *4562:A 6.35307e-05
9 *4154:B1_N *4562:A 0.00034189
10 *4164:A1 *4613:A 4.43591e-05
11 *4345:CLK *467:8 3.39069e-05
12 *4541:A *4613:A 0.000160635
13 *133:147 *4613:A 8.70923e-05
14 *133:147 *467:8 2.15594e-05
15 *134:83 *4562:A 0.000124888
16 *134:93 *4613:A 0.000276983
*RES
1 *4345:Q *467:8 5.235 
2 *467:8 *4613:A 10.095 
3 *467:8 *4562:A 7.845 
*END

*D_NET *468 0.00519518
*CONN
*I *4199:A1 I *D sky130_fd_sc_hd__o211a_1
*I *4216:A1 I *D sky130_fd_sc_hd__o211a_1
*I *4217:A I *D sky130_fd_sc_hd__or2_1
*I *4538:X O *D sky130_fd_sc_hd__dlygate4sd3_1
*CAP
1 *4199:A1 0.000458372
2 *4216:A1 0.000455409
3 *4217:A 0.000133774
4 *4538:X 3.38648e-05
5 *468:14 0.000836409
6 *468:8 0.000739463
7 *4200:B *468:14 0.000275553
8 *4201:A1 *468:14 4.20983e-05
9 *4216:B1 *4216:A1 5.53249e-06
10 *4218:A1 *4199:A1 0.000155139
11 *4218:A1 *468:14 2.37321e-05
12 *4218:A2 *4199:A1 0
13 *4218:A2 *4216:A1 0
14 *4218:B1 *4199:A1 0
15 *4219:A *4216:A1 0
16 *4219:A *468:14 7.59545e-05
17 *4219:B *4216:A1 0
18 *4219:B *4217:A 0.000363292
19 *4219:B *468:14 8.95933e-05
20 *4220:C1 *4217:A 0.000246937
21 *4220:C1 *468:14 0.000152305
22 *4434:A *4216:A1 0
23 *4534:A *468:14 0.00012657
24 *4535:A *468:14 8.53113e-06
25 *4537:A *4217:A 0.000124007
26 *4539:A *4216:A1 0.00046894
27 *4540:A *4199:A1 4.99619e-05
28 *178:86 *4216:A1 0
29 *266:12 *4216:A1 0
30 *266:151 *4216:A1 0
31 *267:14 *468:14 0
32 *460:179 *4199:A1 0.000239813
33 *460:179 *468:8 4.82919e-05
34 *461:25 *4216:A1 0
35 *463:6 *468:14 4.16353e-05
*RES
1 *4538:X *468:8 4.05 
2 *468:8 *468:14 9.26 
3 *468:14 *4217:A 7.24 
4 *468:14 *4216:A1 14.12 
5 *468:8 *4199:A1 12.645 
*END

*D_NET *469 0.000111545
*CONN
*I *4218:C1 I *D sky130_fd_sc_hd__o211a_1
*I *4539:X O *D sky130_fd_sc_hd__dlygate4sd3_1
*CAP
1 *4218:C1 5.81042e-06
2 *4539:X 5.81042e-06
3 *4218:A2 *4218:C1 4.99619e-05
4 *4218:B1 *4218:C1 4.99619e-05
*RES
1 *4539:X *4218:C1 3.65 
*END

*D_NET *470 0.00039076
*CONN
*I *4369:D I *D sky130_fd_sc_hd__dfxtp_1
*I *4540:X O *D sky130_fd_sc_hd__dlygate4sd3_1
*CAP
1 *4369:D 8.18419e-05
2 *4540:X 8.18419e-05
3 *4361:D *4369:D 5.2089e-05
4 *97:77 *4369:D 0
5 *134:83 *4369:D 6.50844e-06
6 *460:179 *4369:D 0.000168478
*RES
1 *4540:X *4369:D 9.16875 
*END

*D_NET *471 0.00423912
*CONN
*I *4330:A1 I *D sky130_fd_sc_hd__o21ai_1
*I *4333:B I *D sky130_fd_sc_hd__nand3_1
*I *4331:A1 I *D sky130_fd_sc_hd__a21oi_1
*I *4332:A1 I *D sky130_fd_sc_hd__a21o_1
*I *4130:B I *D sky130_fd_sc_hd__or4bb_1
*I *4335:A2 I *D sky130_fd_sc_hd__a31o_1
*I *4542:X O *D sky130_fd_sc_hd__dlygate4sd3_1
*CAP
1 *4330:A1 0
2 *4333:B 2.20469e-05
3 *4331:A1 5.53148e-05
4 *4332:A1 0.000196805
5 *4130:B 0.000132188
6 *4335:A2 2.10409e-05
7 *4542:X 0
8 *471:51 0.000235101
9 *471:12 0.000219466
10 *471:8 0.000380805
11 *471:6 0.000275502
12 *4167:A1 *4331:A1 8.3762e-05
13 *4167:A1 *4333:B 4.60584e-05
14 *4330:B1 *471:51 0.000107245
15 *4331:B1 *4331:A1 4.99619e-05
16 *4332:A2 *4332:A1 9.53428e-06
17 *4332:B1 *4332:A1 0.000425924
18 *4333:A *471:51 0
19 *4333:C *4331:A1 4.66108e-05
20 *4333:C *4333:B 4.82919e-05
21 *4333:C *471:51 7.30547e-05
22 *4334:C *471:8 0.000291379
23 *4334:C *471:12 0.000206817
24 *4334:C *471:51 5.56629e-05
25 *4335:A1 *471:12 2.66852e-05
26 *4335:A3 *4335:A2 4.99619e-05
27 *4335:B1 *4130:B 0.00015496
28 *4335:B1 *4335:A2 8.8266e-05
29 *4336:B1 *4130:B 0.000173201
30 *4487:A *4332:A1 4.38278e-05
31 *4489:A *471:8 8.26692e-05
32 *4489:A *471:12 7.44375e-05
33 *4542:A *471:51 0
34 *4543:A *4331:A1 8.88715e-05
35 *4543:A *4333:B 6.77501e-05
36 *252:37 *4331:A1 3.23663e-05
37 *256:10 *471:51 0.000306622
38 *316:6 *4332:A1 6.6925e-05
*RES
1 *4542:X *471:6 3.6 
2 *471:6 *471:8 3.42 
3 *471:8 *471:12 4.4 
4 *471:12 *4335:A2 2.395 
5 *471:12 *4130:B 5.2 
6 *471:8 *4332:A1 9.015 
7 *471:6 *471:51 6.95 
8 *471:51 *4331:A1 3.775 
9 *471:51 *4333:B 2.74 
10 *471:51 *4330:A1 1.6 
*END

*D_NET *472 0.000228713
*CONN
*I *4415:D I *D sky130_fd_sc_hd__dfxtp_1
*I *4543:X O *D sky130_fd_sc_hd__dlygate4sd3_1
*CAP
1 *4415:D 0.000101861
2 *4543:X 0.000101861
3 *4415:CLK *4415:D 2.49909e-05
*RES
1 *4543:X *4415:D 4.56875 
*END

*D_NET *473 0.00318497
*CONN
*I *4130:C_N I *D sky130_fd_sc_hd__or4bb_1
*I *4328:A1 I *D sky130_fd_sc_hd__o21ai_1
*I *4327:A I *D sky130_fd_sc_hd__and4_2
*I *4544:X O *D sky130_fd_sc_hd__dlygate4sd3_1
*CAP
1 *4130:C_N 0.000540237
2 *4328:A1 0.000177184
3 *4327:A 0.000106196
4 *4544:X 0
5 *473:6 0.000345033
6 *473:4 0.000601889
7 *4130:D_N *4130:C_N 0.000203755
8 *4168:B1 *4327:A 0
9 *4327:B *4327:A 5.53249e-06
10 *4334:B *4130:C_N 4.82919e-05
11 *4334:C *4130:C_N 0.000173191
12 *4335:A3 *4327:A 0
13 *4545:A *4328:A1 4.99619e-05
14 *252:12 *4327:A 0
15 *259:92 *4130:C_N 0.000518704
16 *259:92 *473:6 4.60584e-05
17 *259:106 *4328:A1 0.000238919
18 *259:106 *473:6 2.16917e-05
19 *403:10 *4130:C_N 0.000108329
*RES
1 *4544:X *473:4 1.6 
2 *473:4 *473:6 1.14 
3 *473:6 *4327:A 7.235 
4 *473:6 *4328:A1 5.17 
5 *473:4 *4130:C_N 17.315 
*END

*D_NET *474 0.00100845
*CONN
*I *4329:B I *D sky130_fd_sc_hd__nor2_1
*I *4545:X O *D sky130_fd_sc_hd__dlygate4sd3_1
*CAP
1 *4329:B 0.000204171
2 *4545:X 0.000204171
3 *4168:B1 *4329:B 8.71195e-05
4 *4282:B *4329:B 3.09233e-05
5 *252:12 *4329:B 0.000291365
6 *259:106 *4329:B 0.000190705
*RES
1 *4545:X *4329:B 12.105 
*END

*D_NET *475 0.000480466
*CONN
*I *4414:D I *D sky130_fd_sc_hd__dfxtp_1
*I *4546:X O *D sky130_fd_sc_hd__dlygate4sd3_1
*CAP
1 *4414:D 0.000151657
2 *4546:X 0.000151657
3 *100:20 *4414:D 8.53113e-06
4 *144:138 *4414:D 0.000168621
5 *252:12 *4414:D 0
*RES
1 *4546:X *4414:D 9.84375 
*END

*D_NET *476 0.00306574
*CONN
*I *4197:A1 I *D sky130_fd_sc_hd__o211a_1
*I *4214:A1 I *D sky130_fd_sc_hd__o211a_1
*I *4215:A I *D sky130_fd_sc_hd__or2_1
*I *4547:X O *D sky130_fd_sc_hd__dlygate4sd3_1
*CAP
1 *4197:A1 0.000469622
2 *4214:A1 8.32473e-05
3 *4215:A 0
4 *4547:X 9.56046e-05
5 *476:16 0.000428635
6 *476:10 0.000910614
7 *4193:A1 *4197:A1 0.000356395
8 *4193:A2 *4197:A1 1.61831e-05
9 *4193:B1 *4197:A1 0.00013106
10 *4195:B1 *4197:A1 4.47209e-05
11 *4216:C1 *4214:A1 0.000123225
12 *4360:D *4197:A1 4.00541e-06
13 *4368:D *476:16 7.36892e-05
14 *4547:A *4197:A1 4.82919e-05
15 *4547:A *476:10 0
16 *177:72 *4214:A1 0.000242664
17 *177:72 *476:16 3.23663e-05
18 *362:192 *4197:A1 5.4155e-06
*RES
1 *4547:X *476:10 6.725 
2 *476:10 *476:16 4.275 
3 *476:16 *4215:A 1.6 
4 *476:16 *4214:A1 4.135 
5 *476:10 *4197:A1 10 
*END

*D_NET *477 0.000173702
*CONN
*I *4367:D I *D sky130_fd_sc_hd__dfxtp_1
*I *4548:X O *D sky130_fd_sc_hd__dlygate4sd3_1
*CAP
1 *4367:D 8.41709e-05
2 *4548:X 8.41709e-05
3 *4140:C *4367:D 0
4 *4376:CLK *4367:D 5.36069e-06
5 *4463:A *4367:D 0
*RES
1 *4548:X *4367:D 8.46375 
*END

*D_NET *478 0.00523919
*CONN
*I *4567:A I *D sky130_fd_sc_hd__dlygate4sd3_1
*I *4614:A I *D sky130_fd_sc_hd__buf_2
*I *4346:Q O *D sky130_fd_sc_hd__dfxtp_1
*CAP
1 *4567:A 0.000287224
2 *4614:A 0.000870565
3 *4346:Q 0.000184667
4 *478:6 0.00134246
5 *4567:A *4160:A1 3.91054e-05
6 *4567:A *4160:B1 0.000310739
7 *4614:A *4176:A1 4.77757e-05
8 *4614:A *4346:D 5.20335e-05
9 *4614:A *4353:D 1.54049e-05
10 led[3] *4614:A 0.000268138
11 *572:DIODE *4567:A 7.21296e-06
12 *4155:B *4567:A 0.000125317
13 *4156:C1 *4567:A 0.000228297
14 *4160:C1 *4567:A 0.000377624
15 *4163:B1 *4614:A 8.58063e-05
16 *4164:B1 *4614:A 4.40048e-05
17 *4164:B1 *478:6 2.05498e-05
18 *4176:S *4614:A 1.91597e-05
19 *4436:A *4567:A 5.53549e-06
20 *4575:A *4614:A 0.000121469
21 *4584:A *4567:A 1.00941e-05
22 *134:107 *4567:A 0
23 *153:34 *4614:A 2.8185e-05
24 *153:55 *4614:A 4.30188e-05
25 *267:65 *4614:A 0.000430158
26 *267:72 *4614:A 0.000135378
27 *346:10 *4614:A 4.1652e-06
28 *362:10 *4567:A 0.000116853
29 *373:12 *4567:A 1.82563e-05
*RES
1 *4346:Q *478:6 3.775 
2 *478:6 *4614:A 21.26 
3 *478:6 *4567:A 15.14 
*END

*D_NET *479 0.00432199
*CONN
*I *4196:B I *D sky130_fd_sc_hd__or2_1
*I *4158:A1 I *D sky130_fd_sc_hd__o211a_1
*I *4178:A1 I *D sky130_fd_sc_hd__o211a_1
*I *4549:X O *D sky130_fd_sc_hd__dlygate4sd3_1
*CAP
1 *4196:B 3.83895e-05
2 *4158:A1 0.000446918
3 *4178:A1 0.000567427
4 *4549:X 0.000339008
5 *479:12 0.00110118
6 *479:10 0.000464235
7 *479:10 *4195:A1 0.000121031
8 *537:DIODE *4158:A1 0.000108858
9 *571:DIODE *4178:A1 2.59981e-05
10 *4153:A2 *4158:A1 0.00016354
11 *4158:C1 *4158:A1 4.66108e-05
12 *4177:A *4178:A1 3.90775e-05
13 *4178:C1 *4178:A1 2.37896e-05
14 *4194:A *4196:B 8.49205e-05
15 *4195:A2 *479:10 9.8296e-05
16 *4195:C1 *479:10 0.000268278
17 *4561:A *4158:A1 1.91597e-05
18 *4573:A *4178:A1 1.31227e-05
19 *100:263 *4158:A1 2.68464e-05
20 *259:64 *4178:A1 9.83597e-05
21 *301:8 *479:10 1.79098e-05
22 *301:8 *479:12 1.70935e-05
23 *301:27 *4178:A1 0.000116629
24 *301:27 *479:12 7.53115e-05
25 *362:170 *4178:A1 0
*RES
1 *4549:X *479:10 10.14 
2 *479:10 *479:12 1.89 
3 *479:12 *4178:A1 13.965 
4 *479:12 *4158:A1 11.085 
5 *479:10 *4196:B 4.395 
*END

*D_NET *480 0.00487792
*CONN
*I *4250:B1 I *D sky130_fd_sc_hd__a21o_1
*I *4114:C_N I *D sky130_fd_sc_hd__or4bb_1
*I *4109:B I *D sky130_fd_sc_hd__nand2_1
*I *4105:A I *D sky130_fd_sc_hd__and2_1
*I *4106:B I *D sky130_fd_sc_hd__nand4b_1
*I *4550:X O *D sky130_fd_sc_hd__dlygate4sd3_1
*CAP
1 *4250:B1 0.000306738
2 *4114:C_N 0.000197336
3 *4109:B 6.25377e-06
4 *4105:A 2.78682e-05
5 *4106:B 0.000405536
6 *4550:X 0
7 *480:32 0.000470665
8 *480:8 0.000668328
9 *480:6 0.000556839
10 *480:4 0.000361578
11 *4105:A *4105:B 3.26889e-05
12 *4250:B1 *4105:B 0.000299625
13 *480:6 *4105:B 7.66083e-05
14 *480:8 *4105:B 0.000312958
15 *4108:A *4114:C_N 0.00030615
16 *4109:A *480:32 0
17 *4111:A *480:32 0.000109884
18 *4111:D_N *480:32 7.21296e-06
19 *4113:C *4114:C_N 0
20 *4113:C *480:32 0
21 *4114:D_N *4114:C_N 4.82863e-05
22 *4116:C_N *480:32 0
23 *4118:B *4114:C_N 1.91597e-05
24 *4118:C *4114:C_N 0.000152653
25 *4118:C *480:32 0.000150708
26 *4118:D *4114:C_N 0.000164903
27 *4121:A *4114:C_N 0.000116151
28 *103:12 *4114:C_N 2.92496e-05
29 *134:24 *4114:C_N 0
30 *134:24 *480:32 0
31 *260:20 *4106:B 5.05437e-05
32 *282:19 *4106:B 0
33 *284:36 *4106:B 0
*RES
1 *4550:X *480:4 1.6 
2 *480:4 *480:6 0.795 
3 *480:6 *480:8 3.21 
4 *480:8 *4106:B 10.28 
5 *480:8 *4105:A 2.215 
6 *480:6 *480:32 7.3325 
7 *480:32 *4109:B 3.8325 
8 *480:32 *4114:C_N 9.5325 
9 *480:4 *4250:B1 5.77 
*END

*D_NET *481 0.000662517
*CONN
*I *4108:C I *D sky130_fd_sc_hd__or4_2
*I *4551:X O *D sky130_fd_sc_hd__dlygate4sd3_1
*CAP
1 *4108:C 0.000186672
2 *4551:X 0.000186672
3 *4108:D *4108:C 6.02202e-05
4 *4121:C *4108:C 0.000212769
5 *4121:D *4108:C 1.61831e-05
*RES
1 *4551:X *4108:C 10.41 
*END

*D_NET *482 0.00159486
*CONN
*I *4241:A2 I *D sky130_fd_sc_hd__o211a_1
*I *4553:X O *D sky130_fd_sc_hd__dlygate4sd3_1
*CAP
1 *4241:A2 0.000407579
2 *4553:X 0.000407579
3 *4135:A1 *4241:A2 0.000501133
4 *4240:A *4241:A2 8.49205e-05
5 *4241:B1 *4241:A2 3.95724e-05
6 *122:8 *4241:A2 1.34503e-05
7 *263:18 *4241:A2 4.75576e-05
8 *373:231 *4241:A2 9.30717e-05
*RES
1 *4553:X *4241:A2 14.07 
*END

*D_NET *483 0.000455729
*CONN
*I *4378:D I *D sky130_fd_sc_hd__dfxtp_1
*I *4554:X O *D sky130_fd_sc_hd__dlygate4sd3_1
*CAP
1 *4378:D 0.000103436
2 *4554:X 0.000103436
3 *4373:CLK *4378:D 9.03376e-05
4 *122:12 *4378:D 6.65066e-05
5 *373:216 *4378:D 9.20132e-05
6 *450:21 *4378:D 0
*RES
1 *4554:X *4378:D 9.91875 
*END

*D_NET *484 0.00216363
*CONN
*I *4184:A1 I *D sky130_fd_sc_hd__o211a_1
*I *4555:X O *D sky130_fd_sc_hd__dlygate4sd3_1
*CAP
1 *4184:A1 0.000572763
2 *4555:X 0.000572763
3 *4184:A1 *4355:D 3.68769e-05
4 *4200:B *4184:A1 0.000237249
5 *4201:A1 *4184:A1 0
6 *4535:A *4184:A1 0
7 *4556:A *4184:A1 0.000356395
8 *4572:A *4184:A1 0.000201508
9 *267:14 *4184:A1 0
10 *373:355 *4184:A1 9.78082e-05
11 *460:156 *4184:A1 8.8266e-05
*RES
1 *4555:X *4184:A1 18.525 
*END

*D_NET *485 0.000346494
*CONN
*I *4355:D I *D sky130_fd_sc_hd__dfxtp_1
*I *4556:X O *D sky130_fd_sc_hd__dlygate4sd3_1
*CAP
1 *4355:D 6.94054e-05
2 *4556:X 6.94054e-05
3 *4184:A1 *4355:D 3.68769e-05
4 *4572:A *4355:D 7.53592e-05
5 *267:14 *4355:D 9.54469e-05
*RES
1 *4556:X *4355:D 9.00375 
*END

*D_NET *486 0.00308493
*CONN
*I *4222:A1 I *D sky130_fd_sc_hd__o211a_1
*I *4205:A1 I *D sky130_fd_sc_hd__o211a_1
*I *4557:X O *D sky130_fd_sc_hd__dlygate4sd3_1
*CAP
1 *4222:A1 0.000367028
2 *4205:A1 0.000267172
3 *4557:X 0.000120666
4 *486:6 0.000754866
5 *555:DIODE *4205:A1 0
6 *4205:B1 *4205:A1 0.0001169
7 *4222:C1 *4222:A1 0
8 *97:45 *4205:A1 0.00015896
9 *97:45 *486:6 0.000201508
10 *177:96 *4222:A1 5.28227e-05
11 *177:100 *4222:A1 0.00013994
12 *266:22 *4205:A1 0.000117875
13 *266:22 *4222:A1 0.000406778
14 *266:66 *4222:A1 0.000202293
15 *266:79 *4222:A1 0.00015997
16 *373:192 *4205:A1 1.81522e-05
*RES
1 *4557:X *486:6 3.43 
2 *486:6 *4205:A1 10.76 
3 *486:6 *4222:A1 14.375 
*END

*D_NET *487 0.000226288
*CONN
*I *4364:D I *D sky130_fd_sc_hd__dfxtp_1
*I *4558:X O *D sky130_fd_sc_hd__dlygate4sd3_1
*CAP
1 *4364:D 0.000102704
2 *4558:X 0.000102704
3 *4189:A1 *4364:D 0
4 *133:42 *4364:D 6.50844e-06
5 *266:33 *4364:D 1.43717e-05
6 *266:46 *4364:D 0
*RES
1 *4558:X *4364:D 8.71875 
*END

*D_NET *488 0.0103677
*CONN
*I *4232:C I *D sky130_fd_sc_hd__and4_1
*I *4209:A I *D sky130_fd_sc_hd__nand2_2
*I *4142:A I *D sky130_fd_sc_hd__and3_1
*I *4243:C I *D sky130_fd_sc_hd__or4_1
*I *4152:A1 I *D sky130_fd_sc_hd__a32o_1
*I *4242:A2 I *D sky130_fd_sc_hd__o31a_1
*I *4245:A2 I *D sky130_fd_sc_hd__o311a_2
*I *4231:A2 I *D sky130_fd_sc_hd__a31o_1
*I *4208:A I *D sky130_fd_sc_hd__and2_2
*I *4134:A I *D sky130_fd_sc_hd__or3_1
*I *4136:A I *D sky130_fd_sc_hd__or4_4
*I *4559:X O *D sky130_fd_sc_hd__dlygate4sd3_1
*CAP
1 *4232:C 0.000198285
2 *4209:A 0
3 *4142:A 0
4 *4243:C 2.08101e-05
5 *4152:A1 0.000115037
6 *4242:A2 5.80882e-05
7 *4245:A2 0.000407188
8 *4231:A2 0
9 *4208:A 5.12763e-05
10 *4134:A 0
11 *4136:A 7.54074e-05
12 *4559:X 0
13 *488:121 0.00023932
14 *488:85 0.000195359
15 *488:70 0.000530798
16 *488:66 0.000422223
17 *488:56 0.000465474
18 *488:47 0.000388345
19 *488:20 0.000375555
20 *488:12 0.000441639
21 *488:8 0.000380452
22 *488:4 0.000108363
23 *530:DIODE *488:56 4.85494e-05
24 *567:DIODE *488:66 4.66108e-05
25 *4097:A *488:20 4.66108e-05
26 *4099:A *488:56 2.30292e-05
27 *4099:A *488:66 2.75229e-05
28 *4134:B *4136:A 2.75349e-05
29 *4136:C *4136:A 0.000176324
30 *4145:A2 *4136:A 0.00016063
31 *4152:B1 *4152:A1 9.7872e-05
32 *4152:B1 *4245:A2 0.000198188
33 *4152:B1 *488:85 2.86623e-05
34 *4192:A *4232:C 0.000157343
35 *4192:A *488:8 0.000390466
36 *4192:A *488:121 0.000153217
37 *4208:B *488:12 0
38 *4208:B *488:47 0
39 *4209:B *488:121 5.4155e-06
40 *4227:A *488:47 0
41 *4227:B *488:47 0
42 *4227:C *488:12 8.97642e-05
43 *4227:C *488:47 7.07801e-05
44 *4231:A3 *488:47 1.83756e-05
45 *4231:A3 *488:56 3.26889e-05
46 *4231:B1 *488:66 0
47 *4232:D *4232:C 6.38291e-05
48 *4233:C *488:56 0
49 *4242:A3 *4245:A2 0.00016866
50 *4242:A3 *488:85 1.26626e-05
51 *4243:A *4242:A2 2.45351e-05
52 *4243:A *488:70 0.000307054
53 *4243:D *488:66 8.49205e-05
54 *4244:B *4242:A2 0.000124895
55 *4244:B *488:70 8.45551e-05
56 *4245:A3 *4245:A2 0.000207887
57 *4375:CLK *488:66 0.000175166
58 *4375:CLK *488:70 4.92062e-05
59 *4375:D *488:47 7.81876e-05
60 *4380:D *4245:A2 4.82919e-05
61 *4397:D *4152:A1 0
62 *4440:A *488:20 2.75229e-05
63 *4559:A *488:47 8.05681e-05
64 *4595:A *4245:A2 2.50702e-05
65 *122:54 *488:8 9.4087e-05
66 *122:67 *488:8 0.000136838
67 *122:67 *488:121 5.30673e-05
68 *122:80 *4232:C 0.000650474
69 *122:80 *488:121 3.90495e-05
70 *131:12 *488:20 4.43871e-06
71 *131:14 *4136:A 3.57349e-05
72 *134:64 *4136:A 1.61831e-05
73 *151:16 *488:66 0.000135547
74 *177:27 *4232:C 2.59981e-05
75 *177:46 *4232:C 3.31282e-05
76 *259:160 *488:20 4.24292e-06
77 *266:79 *4232:C 1.07797e-05
78 *356:27 *4245:A2 2.86623e-05
79 *356:49 *4136:A 4.99619e-05
80 *366:12 *488:56 0.000203178
81 *366:12 *488:66 4.82919e-05
82 *373:257 *4136:A 2.16917e-05
83 *373:257 *488:20 0.000162318
84 *373:270 *488:66 0.000158297
85 *379:10 *4232:C 4.9968e-05
86 *379:32 *4232:C 0.000312771
87 *432:21 *4242:A2 5.05437e-05
88 *460:12 *488:20 0.000163985
89 *460:25 *488:20 1.1561e-05
90 *460:42 *488:47 0
91 *460:44 *488:70 7.68414e-06
92 *460:50 *4242:A2 2.30292e-05
*RES
1 *4559:X *488:4 1.6 
2 *488:4 *488:8 5.555 
3 *488:8 *488:12 3.89 
4 *488:12 *488:20 9.7 
5 *488:20 *4136:A 4.48 
6 *488:20 *4134:A 1.6 
7 *488:12 *4208:A 2.395 
8 *488:8 *488:47 6.98 
9 *488:47 *4231:A2 1.6 
10 *488:47 *488:56 3.825 
11 *488:56 *488:66 10.915 
12 *488:66 *488:70 5.21 
13 *488:70 *4245:A2 12.39 
14 *488:70 *488:85 0.615 
15 *488:85 *4242:A2 5.445 
16 *488:85 *4152:A1 5.745 
17 *488:66 *4243:C 1.96 
18 *488:56 *4142:A 1.6 
19 *488:4 *488:121 1.845 
20 *488:121 *4209:A 1.6 
21 *488:121 *4232:C 13.58 
*END

*D_NET *489 0.0021183
*CONN
*I *4615:A I *D sky130_fd_sc_hd__buf_2
*I *4552:A I *D sky130_fd_sc_hd__dlygate4sd3_1
*I *4347:Q O *D sky130_fd_sc_hd__dfxtp_1
*CAP
1 *4615:A 0.000701588
2 *4552:A 0
3 *4347:Q 0.000163948
4 *489:8 0.000865536
5 led[2] *4615:A 0
6 led[5] *489:8 1.54837e-05
7 *4345:CLK *4615:A 0
8 *4348:D *4615:A 0
9 *4541:A *4615:A 5.42473e-05
10 *4565:A *4615:A 0
11 *4585:A *4615:A 0.0003175
12 *4613:A *4615:A 0
13 *133:147 *4615:A 0
14 *467:8 *4615:A 0
*RES
1 *4347:Q *489:8 3.7 
2 *489:8 *4552:A 1.6 
3 *489:8 *4615:A 17.18 
*END

*D_NET *490 0.00287696
*CONN
*I *4195:A1 I *D sky130_fd_sc_hd__o211a_1
*I *4212:A1 I *D sky130_fd_sc_hd__o211a_1
*I *4560:X O *D sky130_fd_sc_hd__dlygate4sd3_1
*CAP
1 *4195:A1 0.000645664
2 *4212:A1 0.000127179
3 *4560:X 0.000198525
4 *490:10 0.000971368
5 *4195:A2 *4195:A1 0.000210598
6 *4195:B1 *4195:A1 0.000173858
7 *4210:A *490:10 0
8 *4358:CLK *4195:A1 0.000172376
9 *4358:D *4195:A1 0.000206926
10 *4366:CLK *490:10 0
11 *4366:D *490:10 4.94326e-05
12 *4560:A *490:10 0
13 *479:10 *4195:A1 0.000121031
*RES
1 *4560:X *490:10 9.02 
2 *490:10 *4212:A1 3.43 
3 *490:10 *4195:A1 15.19 
*END

*D_NET *491 0.00628985
*CONN
*I *4198:B I *D sky130_fd_sc_hd__or2_1
*I *4181:A1 I *D sky130_fd_sc_hd__o211a_1
*I *4160:A1 I *D sky130_fd_sc_hd__o211a_1
*I *4561:X O *D sky130_fd_sc_hd__dlygate4sd3_1
*CAP
1 *4198:B 2.08101e-05
2 *4181:A1 0
3 *4160:A1 0.00166316
4 *4561:X 0.000128848
5 *491:12 0.00205648
6 *491:6 0.000542986
7 *4160:A1 *4160:B1 4.55864e-06
8 *4160:A1 *4346:D 2.20632e-05
9 led[3] *4160:A1 0.000339868
10 led[5] *4160:A1 0
11 *537:DIODE *491:6 4.77757e-05
12 *4164:B1 *4160:A1 0
13 *4177:A *4160:A1 2.99518e-06
14 *4178:A2 *4160:A1 0.00012969
15 *4436:A *4160:A1 0
16 *4567:A *4160:A1 3.91054e-05
17 *97:77 *491:12 0.000333763
18 *134:107 *4160:A1 0
19 *362:145 *4160:A1 2.65028e-05
20 *362:145 *491:12 4.15296e-05
21 *362:164 *491:12 0.000145318
22 *362:170 *491:12 0.000310425
23 *373:343 *4160:A1 0.000191097
24 *373:343 *491:12 4.39353e-05
25 *460:179 *491:12 0.000160635
26 *460:192 *491:12 3.83041e-05
*RES
1 *4561:X *491:6 3.085 
2 *491:6 *491:12 11.93 
3 *491:12 *4160:A1 12.9854 
4 *491:12 *4181:A1 3.6 
5 *491:6 *4198:B 1.96 
*END

*D_NET *492 0.00165131
*CONN
*I *4157:A I *D sky130_fd_sc_hd__or2_1
*I *4562:X O *D sky130_fd_sc_hd__dlygate4sd3_1
*CAP
1 *4157:A 0.00040978
2 *4562:X 0.00040978
3 *4154:B1_N *4157:A 3.7712e-05
4 *4562:A *4157:A 0.000232111
5 *4564:A *4157:A 0.00051364
6 *134:83 *4157:A 4.82863e-05
*RES
1 *4562:X *4157:A 11.165 
*END

*D_NET *493 0.000416081
*CONN
*I *4158:B1 I *D sky130_fd_sc_hd__o211a_1
*I *4564:X O *D sky130_fd_sc_hd__dlygate4sd3_1
*CAP
1 *4158:B1 6.53778e-05
2 *4564:X 6.53778e-05
3 *4153:A2 *4158:B1 4.82863e-05
4 *4158:C1 *4158:B1 0.00011852
5 *134:207 *4158:B1 0.00011852
*RES
1 *4564:X *4158:B1 9.03 
*END

*D_NET *494 0.000431118
*CONN
*I *4345:D I *D sky130_fd_sc_hd__dfxtp_1
*I *4565:X O *D sky130_fd_sc_hd__dlygate4sd3_1
*CAP
1 *4345:D 0.000109343
2 *4565:X 0.000109343
3 *4154:A1 *4345:D 0.000162325
4 *4345:CLK *4345:D 5.01066e-05
5 *4585:A *4345:D 0
*RES
1 *4565:X *4345:D 9.57375 
*END

*D_NET *495 0.00765088
*CONN
*I *4194:B I *D sky130_fd_sc_hd__or2_1
*I *4156:A1 I *D sky130_fd_sc_hd__o211a_1
*I *4175:A1 I *D sky130_fd_sc_hd__o211a_1
*I *4566:X O *D sky130_fd_sc_hd__dlygate4sd3_1
*CAP
1 *4194:B 0.000277282
2 *4156:A1 0.000457669
3 *4175:A1 6.8395e-05
4 *4566:X 0.000238482
5 *495:12 0.00145382
6 *495:10 0.00144352
7 *4156:A1 *4156:B1 0.000530853
8 *495:12 *4177:B 0.000437781
9 *495:12 *4353:D 8.71001e-05
10 *539:DIODE *495:12 5.12859e-05
11 *4154:B1_N *495:12 0.000116165
12 *4156:A2 *4156:A1 4.29107e-05
13 *4158:C1 *495:12 0.00039802
14 *4161:A1 *495:12 0
15 *4175:B1 *4175:A1 6.73269e-05
16 *4175:B1 *495:12 4.37599e-05
17 *4337:B2 *4156:A1 0.000328065
18 *4338:B *4156:A1 3.81581e-05
19 *4347:D *495:12 4.4952e-05
20 *4352:D *495:12 0
21 *4359:CLK *4194:B 4.82863e-05
22 *4359:D *4194:B 0.000122565
23 *4359:D *495:10 0
24 *4418:D *4156:A1 5.83373e-05
25 *4451:A *4156:A1 6.52265e-05
26 *4549:A *495:10 6.61758e-05
27 *4565:A *495:12 0
28 *4566:A *495:10 0
29 *4575:A *495:12 0
30 *4577:A *495:12 6.28765e-05
31 *4583:A *4175:A1 5.11921e-05
32 *4586:A *4156:A1 0.000308719
33 *4599:A *495:12 0.000402743
34 *4600:A *495:12 4.40812e-05
35 *100:193 *4156:A1 0
36 *100:206 *4156:A1 0
37 *100:206 *495:12 0
38 *100:263 *495:12 0.000240262
39 *133:114 *495:12 0
40 *133:134 *495:12 0
41 *267:59 *495:12 0
42 *267:65 *495:12 0
43 *267:101 *495:12 0
44 *267:116 *495:10 0
45 *335:55 *4156:A1 3.47296e-05
46 *362:35 *4175:A1 2.01504e-05
47 *362:47 *4156:A1 0
*RES
1 *4566:X *495:10 7.47 
2 *495:10 *495:12 22.4175 
3 *495:12 *4175:A1 5.3325 
4 *495:12 *4156:A1 15.3375 
5 *495:10 *4194:B 8.31 
*END

*D_NET *496 0.00109118
*CONN
*I *4159:A I *D sky130_fd_sc_hd__or2_1
*I *4567:X O *D sky130_fd_sc_hd__dlygate4sd3_1
*CAP
1 *4159:A 0.000212713
2 *4567:X 0.000212713
3 led[1] *4159:A 0.000376374
4 *4155:B *4159:A 0.00021703
5 *4612:A *4159:A 7.23533e-05
*RES
1 *4567:X *4159:A 13.2 
*END

*D_NET *497 0.000835795
*CONN
*I *4160:B1 I *D sky130_fd_sc_hd__o211a_1
*I *4568:X O *D sky130_fd_sc_hd__dlygate4sd3_1
*CAP
1 *4160:B1 0.000171597
2 *4568:X 0.000171597
3 *4160:B1 *4346:D 0
4 *4160:A1 *4160:B1 4.55864e-06
5 *4160:A2 *4160:B1 9.03508e-06
6 *4160:C1 *4160:B1 1.56428e-05
7 *4567:A *4160:B1 0.000310739
8 *362:6 *4160:B1 3.64998e-06
9 *373:12 *4160:B1 0.000148975
*RES
1 *4568:X *4160:B1 11.4412 
*END

*D_NET *498 0.000631921
*CONN
*I *4346:D I *D sky130_fd_sc_hd__dfxtp_1
*I *4569:X O *D sky130_fd_sc_hd__dlygate4sd3_1
*CAP
1 *4346:D 0.000146789
2 *4569:X 0.000146789
3 led[3] *4346:D 9.14049e-05
4 *4160:A1 *4346:D 2.20632e-05
5 *4160:B1 *4346:D 0
6 *4164:B1 *4346:D 1.5693e-05
7 *4436:A *4346:D 2.91494e-05
8 *4569:A *4346:D 7.4027e-05
9 *4614:A *4346:D 5.20335e-05
10 *100:206 *4346:D 0
11 *373:12 *4346:D 5.39718e-05
*RES
1 *4569:X *4346:D 10.8488 
*END

*D_NET *499 0.00190252
*CONN
*I *4176:A0 I *D sky130_fd_sc_hd__mux2_1
*I *4179:A1 I *D sky130_fd_sc_hd__mux2_1
*I *4570:X O *D sky130_fd_sc_hd__dlygate4sd3_1
*CAP
1 *4176:A0 5.57621e-05
2 *4179:A1 0.000275253
3 *4570:X 0.000222551
4 *499:12 0.000553566
5 led[3] *4176:A0 7.50252e-05
6 led[3] *4179:A1 0.000176664
7 *133:93 *499:12 0.000116165
8 *133:108 *499:12 0.000263142
9 *142:32 *4179:A1 0.000161529
10 *153:34 *4179:A1 2.86265e-06
*RES
1 *4570:X *499:12 9.65 
2 *499:12 *4179:A1 5.155 
3 *499:12 *4176:A0 2.395 
*END

*D_NET *500 0.00200024
*CONN
*I *4530:A I *D sky130_fd_sc_hd__dlygate4sd3_1
*I *4616:A I *D sky130_fd_sc_hd__buf_2
*I *4348:Q O *D sky130_fd_sc_hd__dfxtp_1
*CAP
1 *4530:A 4.73814e-05
2 *4616:A 0.000125343
3 *4348:Q 0.000178971
4 *500:10 0.000351696
5 led[5] *4616:A 0.000107521
6 *4158:C1 *4530:A 7.21296e-06
7 *4161:A1 *4530:A 2.92496e-05
8 *4161:A1 *4616:A 0.000421723
9 *4161:A1 *500:10 0.000160651
10 *4347:CLK *4616:A 2.86975e-05
11 *4347:D *4616:A 1.43717e-05
12 *4578:A *500:10 0.000198046
13 *100:263 *4530:A 0.00010596
14 *100:263 *500:10 0.000162318
15 *133:147 *4530:A 6.10941e-05
*RES
1 *4348:Q *500:10 7.32 
2 *500:10 *4616:A 7.86 
3 *500:10 *4530:A 5.235 
*END

*D_NET *501 0.000731648
*CONN
*I *4180:B I *D sky130_fd_sc_hd__or2_1
*I *4571:X O *D sky130_fd_sc_hd__dlygate4sd3_1
*CAP
1 *4180:B 0.000184848
2 *4571:X 0.000184848
3 *4163:A1 *4180:B 8.65905e-05
4 *4179:A0 *4180:B 8.40213e-05
5 *4180:A *4180:B 9.42334e-05
6 *4182:S *4180:B 0
7 *143:31 *4180:B 0
8 *153:21 *4180:B 0
9 *373:60 *4180:B 9.71067e-05
*RES
1 *4571:X *4180:B 11.16 
*END

*D_NET *502 0.000676698
*CONN
*I *4181:B1 I *D sky130_fd_sc_hd__o211a_1
*I *4572:X O *D sky130_fd_sc_hd__dlygate4sd3_1
*CAP
1 *4181:B1 0.000222853
2 *4572:X 0.000222853
3 *4181:C1 *4181:B1 4.76263e-05
4 *362:137 *4181:B1 7.23533e-05
5 *373:343 *4181:B1 0.000111012
*RES
1 *4572:X *4181:B1 10.41 
*END

*D_NET *503 0.00106913
*CONN
*I *4354:D I *D sky130_fd_sc_hd__dfxtp_1
*I *4573:X O *D sky130_fd_sc_hd__dlygate4sd3_1
*CAP
1 *4354:D 0.000187521
2 *4573:X 0.000187521
3 *4163:A1 *4354:D 0.000388186
4 *4172:A1 *4354:D 0.000141606
5 *4177:A *4354:D 0.000141606
6 *4354:CLK *4354:D 2.26916e-05
*RES
1 *4573:X *4354:D 12.4237 
*END

*D_NET *504 0.00106738
*CONN
*I *4173:A0 I *D sky130_fd_sc_hd__mux2_1
*I *4176:A1 I *D sky130_fd_sc_hd__mux2_1
*I *4575:X O *D sky130_fd_sc_hd__dlygate4sd3_1
*CAP
1 *4173:A0 0.0001088
2 *4176:A1 0.000200634
3 *4575:X 0
4 *504:4 0.000309434
5 *4176:S *4176:A1 1.08758e-05
6 *4601:A *4176:A1 0.00016031
7 *4614:A *4176:A1 4.77757e-05
8 *133:93 *4173:A0 0
9 *133:93 *4176:A1 0.000115464
10 *153:55 *4176:A1 2.09714e-05
11 *346:10 *4173:A0 9.3113e-05
*RES
1 *4575:X *504:4 1.6 
2 *504:4 *4176:A1 8.915 
3 *504:4 *4173:A0 7.745 
*END

*D_NET *505 0.00109136
*CONN
*I *4177:B I *D sky130_fd_sc_hd__or2_1
*I *4576:X O *D sky130_fd_sc_hd__dlygate4sd3_1
*CAP
1 *4177:B 0.000267688
2 *4576:X 0.000267688
3 *4570:A *4177:B 0
4 *4575:A *4177:B 0
5 *4577:A *4177:B 8.52044e-05
6 *4578:A *4177:B 3.29947e-05
7 *267:65 *4177:B 0
8 *495:12 *4177:B 0.000437781
*RES
1 *4576:X *4177:B 13.2 
*END

*D_NET *506 0.00101884
*CONN
*I *4178:B1 I *D sky130_fd_sc_hd__o211a_1
*I *4577:X O *D sky130_fd_sc_hd__dlygate4sd3_1
*CAP
1 *4178:B1 0.000334243
2 *4577:X 0.000334243
3 *4163:B1 *4178:B1 0.000196048
4 *4178:A2 *4178:B1 1.88656e-05
5 *4573:A *4178:B1 8.97264e-05
6 *133:108 *4178:B1 4.57185e-05
7 *267:65 *4178:B1 0
*RES
1 *4577:X *4178:B1 11.79 
*END

*D_NET *507 0.00109537
*CONN
*I *4353:D I *D sky130_fd_sc_hd__dfxtp_1
*I *4578:X O *D sky130_fd_sc_hd__dlygate4sd3_1
*CAP
1 *4353:D 0.000360057
2 *4578:X 0.000360057
3 *4162:B1 *4353:D 4.58257e-05
4 *4163:B1 *4353:D 3.54025e-05
5 *4578:A *4353:D 7.00889e-06
6 *4614:A *4353:D 1.54049e-05
7 *133:108 *4353:D 8.49205e-05
8 *133:114 *4353:D 8.52172e-05
9 *267:65 *4353:D 1.43717e-05
10 *495:12 *4353:D 8.71001e-05
*RES
1 *4578:X *4353:D 12.7837 
*END

*D_NET *508 0.00105132
*CONN
*I *4187:A1 I *D sky130_fd_sc_hd__o211a_1
*I *4579:X O *D sky130_fd_sc_hd__dlygate4sd3_1
*CAP
1 *4187:A1 0.000300452
2 *4579:X 0.000300452
3 *4187:A1 *4356:D 0
4 *4184:C1 *4187:A1 0
5 *4187:B1 *4187:A1 7.46228e-05
6 *4203:C1 *4187:A1 2.46089e-05
7 *4284:B1 *4187:A1 7.9642e-06
8 *4363:CLK *4187:A1 0.000145062
9 *4579:A *4187:A1 0
10 *4580:A *4187:A1 4.70343e-05
11 *133:42 *4187:A1 0
12 *143:88 *4187:A1 8.7152e-06
13 *266:46 *4187:A1 0.000139252
14 *460:156 *4187:A1 3.1562e-06
*RES
1 *4579:X *4187:A1 13.365 
*END

*D_NET *509 0.000557541
*CONN
*I *4356:D I *D sky130_fd_sc_hd__dfxtp_1
*I *4580:X O *D sky130_fd_sc_hd__dlygate4sd3_1
*CAP
1 *4356:D 0.000150097
2 *4580:X 0.000150097
3 *4163:A1 *4356:D 3.66286e-05
4 *4184:C1 *4356:D 5.20968e-05
5 *4187:A1 *4356:D 0
6 *306:24 *4356:D 0.000168621
*RES
1 *4580:X *4356:D 10.1888 
*END

*D_NET *510 0.00269819
*CONN
*I *4248:A1 I *D sky130_fd_sc_hd__o21ai_1
*I *4249:A1 I *D sky130_fd_sc_hd__a21oi_1
*I *4250:A1 I *D sky130_fd_sc_hd__a21o_1
*I *4105:B I *D sky130_fd_sc_hd__and2_1
*I *4581:X O *D sky130_fd_sc_hd__dlygate4sd3_1
*CAP
1 *4248:A1 0
2 *4249:A1 0
3 *4250:A1 0
4 *4105:B 0.000172774
5 *4581:X 1.41735e-05
6 *510:20 0.000267307
7 *510:14 0.000525232
8 *510:6 0.000444873
9 *510:14 *4381:D 0
10 *4105:A *4105:B 3.26889e-05
11 *4122:B1_N *510:6 8.65961e-05
12 *4122:B1_N *510:14 1.0183e-05
13 *4249:B1 *510:14 0
14 *4250:A2 *4105:B 0.0001249
15 *4250:B1 *4105:B 0.000299625
16 *4381:CLK *510:14 0
17 *4581:A *510:6 8.65961e-05
18 *4581:A *510:14 0
19 *4582:A *510:14 2.11084e-05
20 *200:27 *510:20 0
21 *280:12 *4105:B 0.000222561
22 *480:6 *4105:B 7.66083e-05
23 *480:8 *4105:B 0.000312958
*RES
1 *4581:X *510:6 2.395 
2 *510:6 *510:14 10.615 
3 *510:14 *510:20 5.38 
4 *510:20 *4105:B 8.275 
5 *510:20 *4250:A1 1.6 
6 *510:14 *4249:A1 1.6 
7 *510:6 *4248:A1 1.6 
*END

*D_NET *511 0.00561543
*CONN
*I *4617:A I *D sky130_fd_sc_hd__buf_2
*I *4596:A I *D sky130_fd_sc_hd__dlygate4sd3_1
*I *4349:Q O *D sky130_fd_sc_hd__dfxtp_1
*CAP
1 *4617:A 0.00252734
2 *4596:A 0
3 *4349:Q 0.000227289
4 *511:10 0.00275463
5 led[6] *4617:A 0
6 *4166:A1 *511:10 0
7 *4166:A2 *511:10 2.7881e-05
8 *4349:D *511:10 0
9 *4438:A *511:10 6.74079e-05
10 *151:16 *511:10 1.08758e-05
*RES
1 *4349:Q *511:10 7.395 
2 *511:10 *4596:A 3.6 
3 *511:10 *4617:A 45.735 
*END

*D_NET *512 0.000318505
*CONN
*I *4381:D I *D sky130_fd_sc_hd__dfxtp_1
*I *4582:X O *D sky130_fd_sc_hd__dlygate4sd3_1
*CAP
1 *4381:D 0.000135736
2 *4582:X 0.000135736
3 *4381:CLK *4381:D 4.70343e-05
4 *140:38 *4381:D 0
5 *510:14 *4381:D 0
*RES
1 *4582:X *4381:D 9.42375 
*END

*D_NET *513 0.00586069
*CONN
*I *4155:A I *D sky130_fd_sc_hd__or2_1
*I *4583:X O *D sky130_fd_sc_hd__dlygate4sd3_1
*CAP
1 *4155:A 0.00160412
2 *4583:X 0.00160412
3 *4155:A *4156:B1 0.000958175
4 *4101:A *4155:A 0.00011379
5 *4155:B *4155:A 4.66108e-05
6 *4339:D *4155:A 0.000109419
7 *4351:CLK *4155:A 0.00011879
8 *4351:D *4155:A 9.16315e-05
9 *4444:A *4155:A 0
10 *4584:A *4155:A 0.000150019
11 *134:119 *4155:A 0.000116853
12 *259:42 *4155:A 0.000533416
13 *265:57 *4155:A 4.19967e-05
14 *265:89 *4155:A 5.83121e-06
15 *265:119 *4155:A 0.000146526
16 *265:130 *4155:A 0.000122325
17 *335:12 *4155:A 5.51158e-05
18 *335:55 *4155:A 4.19513e-05
*RES
1 *4583:X *4155:A 38.41 
*END

*D_NET *514 0.00554046
*CONN
*I *4156:B1 I *D sky130_fd_sc_hd__o211a_1
*I *4584:X O *D sky130_fd_sc_hd__dlygate4sd3_1
*CAP
1 *4156:B1 0.00107861
2 *4584:X 0.00107861
3 *4156:B1 *4344:D 4.82919e-05
4 *572:DIODE *4156:B1 8.8266e-05
5 *4146:B *4156:B1 0.00015445
6 *4155:A *4156:B1 0.000958175
7 *4156:A1 *4156:B1 0.000530853
8 *4156:A2 *4156:B1 2.28636e-05
9 *4172:B1 *4156:B1 0.000232105
10 *4175:A2 *4156:B1 0
11 *4342:D *4156:B1 7.53557e-05
12 *4351:CLK *4156:B1 0
13 *4451:A *4156:B1 3.95617e-05
14 *4571:A *4156:B1 8.88631e-05
15 *100:117 *4156:B1 6.02123e-05
16 *100:123 *4156:B1 5.53249e-06
17 *100:174 *4156:B1 0.000122885
18 *100:193 *4156:B1 1.82476e-05
19 *142:10 *4156:B1 0.000437089
20 *259:42 *4156:B1 0.000160641
21 *259:53 *4156:B1 0
22 *265:51 *4156:B1 0.000197269
23 *360:75 *4156:B1 1.16283e-05
24 *362:107 *4156:B1 0
25 *362:117 *4156:B1 4.43682e-05
26 *373:60 *4156:B1 8.65905e-05
*RES
1 *4584:X *4156:B1 35.28 
*END

*D_NET *515 0.00125557
*CONN
*I *4344:D I *D sky130_fd_sc_hd__dfxtp_1
*I *4586:X O *D sky130_fd_sc_hd__dlygate4sd3_1
*CAP
1 *4344:D 0.000245148
2 *4586:X 0.000245148
3 uart_txd *4344:D 0.000123204
4 *572:DIODE *4344:D 0
5 *4156:B1 *4344:D 4.82919e-05
6 *4436:A *4344:D 0.000436027
7 *4583:A *4344:D 7.36892e-05
8 *12:9 *4344:D 6.08203e-05
9 *362:35 *4344:D 2.32369e-05
*RES
1 *4586:X *4344:D 13.5337 
*END

*D_NET *516 0.00274321
*CONN
*I *4129:D I *D sky130_fd_sc_hd__or4_1
*I *4319:C I *D sky130_fd_sc_hd__and4_1
*I *4316:B I *D sky130_fd_sc_hd__and3_1
*I *4313:A I *D sky130_fd_sc_hd__and2_1
*I *4314:A1 I *D sky130_fd_sc_hd__o21ai_1
*I *4587:X O *D sky130_fd_sc_hd__dlygate4sd3_1
*CAP
1 *4129:D 7.25831e-05
2 *4319:C 0
3 *4316:B 0.000177172
4 *4313:A 0
5 *4314:A1 6.35626e-05
6 *4587:X 0
7 *516:45 8.93497e-05
8 *516:34 0.000289519
9 *516:14 0.000172778
10 *516:6 0.000204795
11 *4316:B *4319:B 3.82323e-06
12 *4129:C *4129:D 9.03988e-05
13 *4318:A *4316:B 8.65961e-05
14 *4319:D *4316:B 1.4389e-05
15 *4320:A1 *4129:D 1.1561e-05
16 *4320:A1 *516:34 6.82445e-05
17 *4320:A1 *516:45 4.03082e-05
18 *4409:CLK *516:14 0
19 *4410:CLK *4314:A1 1.46828e-05
20 *4410:CLK *516:14 0.000354719
21 *4588:A *516:14 3.86607e-05
22 *4588:A *516:34 2.42236e-05
23 *4589:A *4314:A1 0.000198046
24 *4589:A *516:14 3.25635e-05
25 *242:29 *4316:B 1.9415e-05
26 *242:48 *4129:D 1.89685e-05
27 *242:48 *516:14 0.000296306
28 *242:48 *516:34 0.000138615
29 *242:48 *516:45 4.39734e-05
30 *247:8 *4129:D 2.97204e-05
31 *247:12 *4129:D 4.82863e-05
32 *247:60 *4129:D 7.21296e-06
33 *261:46 *4314:A1 9.27326e-05
*RES
1 *4587:X *516:6 3.6 
2 *516:6 *516:14 6.95 
3 *516:14 *4314:A1 3.79 
4 *516:14 *4313:A 1.6 
5 *516:6 *516:34 2.7 
6 *516:34 *4316:B 5.775 
7 *516:34 *516:45 0.87 
8 *516:45 *4319:C 3.6 
9 *516:45 *4129:D 5.685 
*END

*D_NET *517 0.00113553
*CONN
*I *4315:B I *D sky130_fd_sc_hd__nor2_1
*I *4588:X O *D sky130_fd_sc_hd__dlygate4sd3_1
*CAP
1 *4315:B 0.00013046
2 *4588:X 0.00013046
3 *4314:B1 *4315:B 0.00018726
4 *4315:A *4315:B 0.000260225
5 *4317:A2 *4315:B 0.000201508
6 *4320:A1 *4315:B 0.000164874
7 *144:148 *4315:B 6.07412e-05
*RES
1 *4588:X *4315:B 12.39 
*END

*D_NET *518 0.00050515
*CONN
*I *4409:D I *D sky130_fd_sc_hd__dfxtp_1
*I *4589:X O *D sky130_fd_sc_hd__dlygate4sd3_1
*CAP
1 *4409:D 0.000252575
2 *4589:X 0.000252575
3 *4409:CLK *4409:D 0
4 *4587:A *4409:D 0
*RES
1 *4589:X *4409:D 11.0437 
*END

*D_NET *519 0.00274731
*CONN
*I *4128:A I *D sky130_fd_sc_hd__nand2_1
*I *4319:B I *D sky130_fd_sc_hd__and4_1
*I *4316:A I *D sky130_fd_sc_hd__and3_1
*I *4317:A1 I *D sky130_fd_sc_hd__o21ai_1
*I *4590:X O *D sky130_fd_sc_hd__dlygate4sd3_1
*CAP
1 *4128:A 0.000194586
2 *4319:B 0.000268406
3 *4316:A 0
4 *4317:A1 0.000137315
5 *4590:X 0
6 *519:23 0.000323901
7 *519:19 0.000360242
8 *519:4 0.000247475
9 *4129:A *4128:A 4.43871e-06
10 *4131:C *4128:A 0.00023468
11 *4316:B *4319:B 3.82323e-06
12 *4317:A2 *4317:A1 0.000186662
13 *4319:D *4319:B 4.82863e-05
14 *4320:A2 *519:19 0
15 *4334:A *4128:A 5.51245e-05
16 *4334:A *519:19 1.44259e-05
17 *4591:A *4317:A1 0.000123225
18 *144:60 *4317:A1 0
19 *242:14 *4317:A1 8.69098e-05
20 *242:14 *519:19 0.000116158
21 *242:27 *4319:B 6.27844e-05
22 *242:27 *519:23 0.000124895
23 *242:29 *4319:B 0.000153974
24 *242:48 *519:19 0
25 *247:8 *519:19 0
26 *247:60 *4128:A 0
*RES
1 *4590:X *519:4 1.6 
2 *519:4 *4317:A1 5.44 
3 *519:4 *519:19 3.89 
4 *519:19 *519:23 3.14 
5 *519:23 *4316:A 1.6 
6 *519:23 *4319:B 5.17 
7 *519:19 *4128:A 7.41 
*END

*D_NET *520 0.000246429
*CONN
*I *4318:B I *D sky130_fd_sc_hd__nor2_1
*I *4591:X O *D sky130_fd_sc_hd__dlygate4sd3_1
*CAP
1 *4318:B 7.7824e-05
2 *4591:X 7.7824e-05
3 *4318:A *4318:B 4.99619e-05
4 *4591:A *4318:B 2.30292e-05
5 *4592:A *4318:B 4.05674e-06
6 *239:20 *4318:B 1.37328e-05
*RES
1 *4591:X *4318:B 4.7 
*END

*D_NET *521 0.000702917
*CONN
*I *4410:D I *D sky130_fd_sc_hd__dfxtp_1
*I *4592:X O *D sky130_fd_sc_hd__dlygate4sd3_1
*CAP
1 *4410:D 0.000351459
2 *4592:X 0.000351459
*RES
1 *4592:X *4410:D 8.16875 
*END
